# vtk DataFile Version 3.0
vtk output at time 1
ASCII
DATASET UNSTRUCTURED_GRID
POINTS 1331 float
0 0 0 1 0 0 1 1 0 
0 1 0 4.13683e-05 4.13683e-05 0.980666 0.999959 4.13683e-05 0.980666 
0.999959 0.999959 0.980666 4.13683e-05 0.999959 0.980666 0.1 0 0 
0.2 0 0 0.3 0 0 0.4 0 0 
0.5 0 0 0.6 0 0 0.7 0 0 
0.8 0 0 0.9 0 0 1.007 -0.00700132 0.0942868 
1.00927 -0.00927381 0.18954 1.01076 -0.0107636 0.286139 1.0116 -0.0116038 0.383357 
1.01187 -0.0118743 0.481247 1.01149 -0.0114896 0.579975 1.01023 -0.010233 0.679611 
1.00787 -0.00787331 0.779958 1.00429 -0.00429434 0.880478 0.90011 0.000113639 0.976726 
0.800107 0.000342675 0.973333 0.699883 0.000413855 0.970685 0.599869 0.000650865 0.968495 
0.5 0.000801745 0.967556 0.400131 0.000650865 0.968495 0.300117 0.000413855 0.970685 
0.199893 0.000342675 0.973333 0.0998904 0.000113639 0.976726 -0.00429434 -0.00429434 0.880478 
-0.00787331 -0.00787331 0.779958 -0.010233 -0.010233 0.679611 -0.0114896 -0.0114896 0.579975 
-0.0118743 -0.0118743 0.481247 -0.0116038 -0.0116038 0.383357 -0.0107636 -0.0107636 0.286139 
-0.00927381 -0.00927381 0.18954 -0.00700132 -0.00700132 0.0942868 1 0.1 0 
1 0.2 0 1 0.3 0 1 0.4 0 
1 0.5 0 1 0.6 0 1 0.7 0 
1 0.8 0 1 0.9 0 1.007 1.007 0.0942868 
1.00927 1.00927 0.18954 1.01076 1.01076 0.286139 1.0116 1.0116 0.383357 
1.01187 1.01187 0.481247 1.01149 1.01149 0.579975 1.01023 1.01023 0.679611 
1.00787 1.00787 0.779958 1.00429 1.00429 0.880478 0.999886 0.90011 0.976726 
0.999657 0.800107 0.973333 0.999586 0.699883 0.970685 0.999349 0.599869 0.968495 
0.999198 0.5 0.967556 0.999349 0.400131 0.968495 0.999586 0.300117 0.970685 
0.999657 0.199893 0.973333 0.999886 0.0998904 0.976726 0.9 1 0 
0.8 1 0 0.7 1 0 0.6 1 0 
0.5 1 0 0.4 1 0 0.3 1 0 
0.2 1 0 0.1 1 0 -0.00700132 1.007 0.0942868 
-0.00927381 1.00927 0.18954 -0.0107636 1.01076 0.286139 -0.0116038 1.0116 0.383357 
-0.0118743 1.01187 0.481247 -0.0114896 1.01149 0.579975 -0.010233 1.01023 0.679611 
-0.00787331 1.00787 0.779958 -0.00429434 1.00429 0.880478 0.0998904 0.999886 0.976726 
0.199893 0.999657 0.973333 0.300117 0.999586 0.970685 0.400131 0.999349 0.968495 
0.5 0.999198 0.967556 0.599869 0.999349 0.968495 0.699883 0.999586 0.970685 
0.800107 0.999657 0.973333 0.90011 0.999886 0.976726 0 0.9 0 
0 0.8 0 0 0.7 0 0 0.6 0 
0 0.5 0 0 0.4 0 0 0.3 0 
0 0.2 0 0 0.1 0 0.000113639 0.0998904 0.976726 
0.000342675 0.199893 0.973333 0.000413855 0.300117 0.970685 0.000650865 0.400131 0.968495 
0.000801745 0.5 0.967556 0.000650865 0.599869 0.968495 0.000413855 0.699883 0.970685 
0.000342675 0.800107 0.973333 0.000113639 0.90011 0.976726 0.0953053 -0.00668739 0.0958189 
0.196699 -0.00706182 0.0959339 0.297803 -0.007363 0.0959353 0.398889 -0.00757266 0.0958734 
0.5 -0.00764802 0.0958468 0.601111 -0.00757266 0.0958734 0.702197 -0.007363 0.0959353 
0.803301 -0.00706182 0.0959339 0.904695 -0.00668739 0.0958189 0.0924352 -0.00956185 0.191039 
0.194265 -0.00980559 0.191471 0.296088 -0.0102472 0.191425 0.398003 -0.0105691 0.191283 
0.5 -0.0106888 0.191216 0.601997 -0.0105691 0.191283 0.703912 -0.0102472 0.191425 
0.805735 -0.00980559 0.191471 0.907565 -0.00956185 0.191039 0.0907198 -0.0110464 0.287047 
0.192573 -0.0115009 0.287228 0.294791 -0.0120462 0.286964 0.397306 -0.0124874 0.286636 
0.5 -0.0126514 0.286498 0.602694 -0.0124874 0.286636 0.705209 -0.0120462 0.286964 
0.807427 -0.0115009 0.287228 0.90928 -0.0110464 0.287047 0.0896506 -0.0118758 0.383611 
0.191428 -0.012514 0.383207 0.293833 -0.0133008 0.38246 0.396768 -0.0139154 0.381806 
0.5 -0.0141457 0.381552 0.603232 -0.0139154 0.381806 0.706167 -0.0133008 0.38246 
0.808572 -0.012514 0.383207 0.910349 -0.0118758 0.383611 0.0890812 -0.0121988 0.480771 
0.190691 -0.013102 0.479601 0.293159 -0.0142587 0.478176 0.396373 -0.0151485 0.477077 
0.5 -0.0154762 0.476672 0.603627 -0.0151485 0.477077 0.706841 -0.0142587 0.478176 
0.809309 -0.013102 0.479601 0.910919 -0.0121988 0.480771 0.0890901 -0.0119342 0.578674 
0.190442 -0.0132067 0.57667 0.292844 -0.0148825 0.574501 0.396171 -0.0161282 0.572932 
0.5 -0.0165778 0.572375 0.603829 -0.0161282 0.572932 0.707156 -0.0148825 0.574501 
0.809558 -0.0132067 0.57667 0.91091 -0.0119342 0.578674 0.0899523 -0.0108324 0.677422 
0.190967 -0.0124902 0.674694 0.293118 -0.0147352 0.671931 0.396291 -0.0162889 0.670005 
0.5 -0.0168438 0.669333 0.603709 -0.0162889 0.670005 0.706882 -0.0147352 0.671931 
0.809033 -0.0124902 0.674694 0.910048 -0.0108324 0.677422 0.0920027 -0.00853119 0.776944 
0.192608 -0.0103366 0.773818 0.294306 -0.0127646 0.770888 0.396958 -0.0143404 0.768797 
0.5 -0.0148447 0.768064 0.603042 -0.0143404 0.768797 0.705694 -0.0127646 0.770888 
0.807392 -0.0103366 0.773818 0.907997 -0.00853119 0.776944 0.095507 -0.00480384 0.876865 
0.195794 -0.00605628 0.873667 0.29681 -0.0077741 0.870884 0.398329 -0.0087151 0.868784 
0.5 -0.00895856 0.868005 0.601671 -0.0087151 0.868784 0.70319 -0.0077741 0.870884 
0.804206 -0.00605628 0.873667 0.904493 -0.00480384 0.876865 1.00669 0.0953053 0.0958189 
1.00706 0.196699 0.0959339 1.00736 0.297803 0.0959353 1.00757 0.398889 0.0958734 
1.00765 0.5 0.0958468 1.00757 0.601111 0.0958734 1.00736 0.702197 0.0959353 
1.00706 0.803301 0.0959339 1.00669 0.904695 0.0958189 1.00956 0.0924352 0.191039 
1.00981 0.194265 0.191471 1.01025 0.296088 0.191425 1.01057 0.398003 0.191283 
1.01069 0.5 0.191216 1.01057 0.601997 0.191283 1.01025 0.703912 0.191425 
1.00981 0.805735 0.191471 1.00956 0.907565 0.191039 1.01105 0.0907198 0.287047 
1.0115 0.192573 0.287228 1.01205 0.294791 0.286964 1.01249 0.397306 0.286636 
1.01265 0.5 0.286498 1.01249 0.602694 0.286636 1.01205 0.705209 0.286964 
1.0115 0.807427 0.287228 1.01105 0.90928 0.287047 1.01188 0.0896506 0.383611 
1.01251 0.191428 0.383207 1.0133 0.293833 0.38246 1.01392 0.396768 0.381806 
1.01415 0.5 0.381552 1.01392 0.603232 0.381806 1.0133 0.706167 0.38246 
1.01251 0.808572 0.383207 1.01188 0.910349 0.383611 1.0122 0.0890812 0.480771 
1.0131 0.190691 0.479601 1.01426 0.293159 0.478176 1.01515 0.396373 0.477077 
1.01548 0.5 0.476672 1.01515 0.603627 0.477077 1.01426 0.706841 0.478176 
1.0131 0.809309 0.479601 1.0122 0.910919 0.480771 1.01193 0.0890901 0.578674 
1.01321 0.190442 0.57667 1.01488 0.292844 0.574501 1.01613 0.396171 0.572932 
1.01658 0.5 0.572375 1.01613 0.603829 0.572932 1.01488 0.707156 0.574501 
1.01321 0.809558 0.57667 1.01193 0.91091 0.578674 1.01083 0.0899523 0.677422 
1.01249 0.190967 0.674694 1.01474 0.293118 0.671931 1.01629 0.396291 0.670005 
1.01684 0.5 0.669333 1.01629 0.603709 0.670005 1.01474 0.706882 0.671931 
1.01249 0.809033 0.674694 1.01083 0.910048 0.677422 1.00853 0.0920027 0.776944 
1.01034 0.192608 0.773818 1.01276 0.294306 0.770888 1.01434 0.396958 0.768797 
1.01484 0.5 0.768064 1.01434 0.603042 0.768797 1.01276 0.705694 0.770888 
1.01034 0.807392 0.773818 1.00853 0.907997 0.776944 1.0048 0.095507 0.876865 
1.00606 0.195794 0.873667 1.00777 0.29681 0.870884 1.00872 0.398329 0.868784 
1.00896 0.5 0.868005 1.00872 0.601671 0.868784 1.00777 0.70319 0.870884 
1.00606 0.804206 0.873667 1.0048 0.904493 0.876865 0.904695 1.00669 0.0958189 
0.803301 1.00706 0.0959339 0.702197 1.00736 0.0959353 0.601111 1.00757 0.0958734 
0.5 1.00765 0.0958468 0.398889 1.00757 0.0958734 0.297803 1.00736 0.0959353 
0.196699 1.00706 0.0959339 0.0953053 1.00669 0.0958189 0.907565 1.00956 0.191039 
0.805735 1.00981 0.191471 0.703912 1.01025 0.191425 0.601997 1.01057 0.191283 
0.5 1.01069 0.191216 0.398003 1.01057 0.191283 0.296088 1.01025 0.191425 
0.194265 1.00981 0.191471 0.0924352 1.00956 0.191039 0.90928 1.01105 0.287047 
0.807427 1.0115 0.287228 0.705209 1.01205 0.286964 0.602694 1.01249 0.286636 
0.5 1.01265 0.286498 0.397306 1.01249 0.286636 0.294791 1.01205 0.286964 
0.192573 1.0115 0.287228 0.0907198 1.01105 0.287047 0.910349 1.01188 0.383611 
0.808572 1.01251 0.383207 0.706167 1.0133 0.38246 0.603232 1.01392 0.381806 
0.5 1.01415 0.381552 0.396768 1.01392 0.381806 0.293833 1.0133 0.38246 
0.191428 1.01251 0.383207 0.0896506 1.01188 0.383611 0.910919 1.0122 0.480771 
0.809309 1.0131 0.479601 0.706841 1.01426 0.478176 0.603627 1.01515 0.477077 
0.5 1.01548 0.476672 0.396373 1.01515 0.477077 0.293159 1.01426 0.478176 
0.190691 1.0131 0.479601 0.0890812 1.0122 0.480771 0.91091 1.01193 0.578674 
0.809558 1.01321 0.57667 0.707156 1.01488 0.574501 0.603829 1.01613 0.572932 
0.5 1.01658 0.572375 0.396171 1.01613 0.572932 0.292844 1.01488 0.574501 
0.190442 1.01321 0.57667 0.0890901 1.01193 0.578674 0.910048 1.01083 0.677422 
0.809033 1.01249 0.674694 0.706882 1.01474 0.671931 0.603709 1.01629 0.670005 
0.5 1.01684 0.669333 0.396291 1.01629 0.670005 0.293118 1.01474 0.671931 
0.190967 1.01249 0.674694 0.0899523 1.01083 0.677422 0.907997 1.00853 0.776944 
0.807392 1.01034 0.773818 0.705694 1.01276 0.770888 0.603042 1.01434 0.768797 
0.5 1.01484 0.768064 0.396958 1.01434 0.768797 0.294306 1.01276 0.770888 
0.192608 1.01034 0.773818 0.0920027 1.00853 0.776944 0.904493 1.0048 0.876865 
0.804206 1.00606 0.873667 0.70319 1.00777 0.870884 0.601671 1.00872 0.868784 
0.5 1.00896 0.868005 0.398329 1.00872 0.868784 0.29681 1.00777 0.870884 
0.195794 1.00606 0.873667 0.095507 1.0048 0.876865 -0.00668739 0.904695 0.0958189 
-0.00706182 0.803301 0.0959339 -0.007363 0.702197 0.0959353 -0.00757266 0.601111 0.0958734 
-0.00764802 0.5 0.0958468 -0.00757266 0.398889 0.0958734 -0.007363 0.297803 0.0959353 
-0.00706182 0.196699 0.0959339 -0.00668739 0.0953053 0.0958189 -0.00956185 0.907565 0.191039 
-0.00980559 0.805735 0.191471 -0.0102472 0.703912 0.191425 -0.0105691 0.601997 0.191283 
-0.0106888 0.5 0.191216 -0.0105691 0.398003 0.191283 -0.0102472 0.296088 0.191425 
-0.00980559 0.194265 0.191471 -0.00956185 0.0924352 0.191039 -0.0110464 0.90928 0.287047 
-0.0115009 0.807427 0.287228 -0.0120462 0.705209 0.286964 -0.0124874 0.602694 0.286636 
-0.0126514 0.5 0.286498 -0.0124874 0.397306 0.286636 -0.0120462 0.294791 0.286964 
-0.0115009 0.192573 0.287228 -0.0110464 0.0907198 0.287047 -0.0118758 0.910349 0.383611 
-0.012514 0.808572 0.383207 -0.0133008 0.706167 0.38246 -0.0139154 0.603232 0.381806 
-0.0141457 0.5 0.381552 -0.0139154 0.396768 0.381806 -0.0133008 0.293833 0.38246 
-0.012514 0.191428 0.383207 -0.0118758 0.0896506 0.383611 -0.0121988 0.910919 0.480771 
-0.013102 0.809309 0.479601 -0.0142587 0.706841 0.478176 -0.0151485 0.603627 0.477077 
-0.0154762 0.5 0.476672 -0.0151485 0.396373 0.477077 -0.0142587 0.293159 0.478176 
-0.013102 0.190691 0.479601 -0.0121988 0.0890812 0.480771 -0.0119342 0.91091 0.578674 
-0.0132067 0.809558 0.57667 -0.0148825 0.707156 0.574501 -0.0161282 0.603829 0.572932 
-0.0165778 0.5 0.572375 -0.0161282 0.396171 0.572932 -0.0148825 0.292844 0.574501 
-0.0132067 0.190442 0.57667 -0.0119342 0.0890901 0.578674 -0.0108324 0.910048 0.677422 
-0.0124902 0.809033 0.674694 -0.0147352 0.706882 0.671931 -0.0162889 0.603709 0.670005 
-0.0168438 0.5 0.669333 -0.0162889 0.396291 0.670005 -0.0147352 0.293118 0.671931 
-0.0124902 0.190967 0.674694 -0.0108324 0.0899523 0.677422 -0.00853119 0.907997 0.776944 
-0.0103366 0.807392 0.773818 -0.0127646 0.705694 0.770888 -0.0143404 0.603042 0.768797 
-0.0148447 0.5 0.768064 -0.0143404 0.396958 0.768797 -0.0127646 0.294306 0.770888 
-0.0103366 0.192608 0.773818 -0.00853119 0.0920027 0.776944 -0.00480384 0.904493 0.876865 
-0.00605628 0.804206 0.873667 -0.0077741 0.70319 0.870884 -0.0087151 0.601671 0.868784 
-0.00895856 0.5 0.868005 -0.0087151 0.398329 0.868784 -0.0077741 0.29681 0.870884 
-0.00605628 0.195794 0.873667 -0.00480384 0.095507 0.876865 0.1 0.9 0 
0.2 0.9 0 0.3 0.9 0 0.4 0.9 0 
0.5 0.9 0 0.6 0.9 0 0.7 0.9 0 
0.8 0.9 0 0.9 0.9 0 0.1 0.8 0 
0.2 0.8 0 0.3 0.8 0 0.4 0.8 0 
0.5 0.8 0 0.6 0.8 0 0.7 0.8 0 
0.8 0.8 0 0.9 0.8 0 0.1 0.7 0 
0.2 0.7 0 0.3 0.7 0 0.4 0.7 0 
0.5 0.7 0 0.6 0.7 0 0.7 0.7 0 
0.8 0.7 0 0.9 0.7 0 0.1 0.6 0 
0.2 0.6 0 0.3 0.6 0 0.4 0.6 0 
0.5 0.6 0 0.6 0.6 0 0.7 0.6 0 
0.8 0.6 0 0.9 0.6 0 0.1 0.5 0 
0.2 0.5 0 0.3 0.5 0 0.4 0.5 0 
0.5 0.5 0 0.6 0.5 0 0.7 0.5 0 
0.8 0.5 0 0.9 0.5 0 0.1 0.4 0 
0.2 0.4 0 0.3 0.4 0 0.4 0.4 0 
0.5 0.4 0 0.6 0.4 0 0.7 0.4 0 
0.8 0.4 0 0.9 0.4 0 0.1 0.3 0 
0.2 0.3 0 0.3 0.3 0 0.4 0.3 0 
0.5 0.3 0 0.6 0.3 0 0.7 0.3 0 
0.8 0.3 0 0.9 0.3 0 0.1 0.2 0 
0.2 0.2 0 0.3 0.2 0 0.4 0.2 0 
0.5 0.2 0 0.6 0.2 0 0.7 0.2 0 
0.8 0.2 0 0.9 0.2 0 0.1 0.1 0 
0.2 0.1 0 0.3 0.1 0 0.4 0.1 0 
0.5 0.1 0 0.6 0.1 0 0.7 0.1 0 
0.8 0.1 0 0.9 0.1 0 0.100106 0.100106 0.972016 
0.200328 0.100512 0.967396 0.300391 0.100614 0.963371 0.400467 0.10115 0.959676 
0.5 0.101526 0.958381 0.599533 0.10115 0.959676 0.699609 0.100614 0.963371 
0.799672 0.100512 0.967396 0.899894 0.100106 0.972016 0.100512 0.200328 0.967396 
0.201012 0.201012 0.958471 0.301821 0.201394 0.952562 0.400081 0.202511 0.944153 
0.5 0.202115 0.942451 0.599919 0.202511 0.944153 0.698179 0.201394 0.952562 
0.798988 0.201012 0.958471 0.899488 0.200328 0.967396 0.100614 0.300391 0.963371 
0.201394 0.301821 0.952562 0.295304 0.295304 0.9 0.39945 0.297581 0.9 
0.5 0.297794 0.9 0.60055 0.297581 0.9 0.704696 0.295304 0.9 
0.798606 0.301821 0.952562 0.899386 0.300391 0.963371 0.10115 0.400467 0.959676 
0.202511 0.400081 0.944153 0.297581 0.39945 0.9 0.40019 0.40019 0.9 
0.5 0.400465 0.9 0.59981 0.40019 0.9 0.702419 0.39945 0.9 
0.797489 0.400081 0.944153 0.89885 0.400467 0.959676 0.101526 0.5 0.958381 
0.202115 0.5 0.942451 0.297794 0.5 0.9 0.400465 0.5 0.9 
0.5 0.5 0.9 0.599535 0.5 0.9 0.702206 0.5 0.9 
0.797885 0.5 0.942451 0.898474 0.5 0.958381 0.10115 0.599533 0.959676 
0.202511 0.599919 0.944153 0.297581 0.60055 0.9 0.40019 0.59981 0.9 
0.5 0.599535 0.9 0.59981 0.59981 0.9 0.702419 0.60055 0.9 
0.797489 0.599919 0.944153 0.89885 0.599533 0.959676 0.100614 0.699609 0.963371 
0.201394 0.698179 0.952562 0.295304 0.704696 0.9 0.39945 0.702419 0.9 
0.5 0.702206 0.9 0.60055 0.702419 0.9 0.704696 0.704696 0.9 
0.798606 0.698179 0.952562 0.899386 0.699609 0.963371 0.100512 0.799672 0.967396 
0.201012 0.798988 0.958471 0.301821 0.798606 0.952562 0.400081 0.797489 0.944153 
0.5 0.797885 0.942451 0.599919 0.797489 0.944153 0.698179 0.798606 0.952562 
0.798988 0.798988 0.958471 0.899488 0.799672 0.967396 0.100106 0.899894 0.972016 
0.200328 0.899488 0.967396 0.300391 0.899386 0.963371 0.400467 0.89885 0.959676 
0.5 0.898474 0.958381 0.599533 0.89885 0.959676 0.699609 0.899386 0.963371 
0.799672 0.899488 0.967396 0.899894 0.899894 0.972016 0.0954391 0.0954391 0.0973528 
0.196815 0.0952689 0.0974987 0.297918 0.0950399 0.0975527 0.39896 0.0948711 0.0975358 
0.5 0.0948091 0.0975258 0.60104 0.0948711 0.0975358 0.702082 0.0950399 0.0975527 
0.803185 0.0952689 0.0974987 0.904561 0.0954391 0.0973528 0.0952689 0.196815 0.0974987 
0.1967 0.1967 0.0976797 0.297854 0.196537 0.0977395 0.398933 0.196406 0.097726 
0.5 0.196357 0.0977169 0.601067 0.196406 0.097726 0.702146 0.196537 0.0977395 
0.8033 0.1967 0.0976797 0.904731 0.196815 0.0974987 0.0950399 0.297918 0.0975527 
0.196537 0.297854 0.0977395 0.297745 0.297745 0.0978021 0.398879 0.297656 0.0977868 
0.5 0.297621 0.0977769 0.601121 0.297656 0.0977868 0.702255 0.297745 0.0978021 
0.803463 0.297854 0.0977395 0.90496 0.297918 0.0975527 0.0948711 0.39896 0.0975358 
0.196406 0.398933 0.097726 0.297656 0.398879 0.0977868 0.398833 0.398833 0.0977686 
0.5 0.398815 0.0977574 0.601167 0.398833 0.0977686 0.702344 0.398879 0.0977868 
0.803594 0.398933 0.097726 0.905129 0.39896 0.0975358 0.0948091 0.5 0.0975258 
0.196357 0.5 0.0977169 0.297621 0.5 0.0977769 0.398815 0.5 0.0977574 
0.5 0.5 0.0977458 0.601185 0.5 0.0977574 0.702379 0.5 0.0977769 
0.803643 0.5 0.0977169 0.905191 0.5 0.0975258 0.0948711 0.60104 0.0975358 
0.196406 0.601067 0.097726 0.297656 0.601121 0.0977868 0.398833 0.601167 0.0977686 
0.5 0.601185 0.0977574 0.601167 0.601167 0.0977686 0.702344 0.601121 0.0977868 
0.803594 0.601067 0.097726 0.905129 0.60104 0.0975358 0.0950399 0.702082 0.0975527 
0.196537 0.702146 0.0977395 0.297745 0.702255 0.0978021 0.398879 0.702344 0.0977868 
0.5 0.702379 0.0977769 0.601121 0.702344 0.0977868 0.702255 0.702255 0.0978021 
0.803463 0.702146 0.0977395 0.90496 0.702082 0.0975527 0.0952689 0.803185 0.0974987 
0.1967 0.8033 0.0976797 0.297854 0.803463 0.0977395 0.398933 0.803594 0.097726 
0.5 0.803643 0.0977169 0.601067 0.803594 0.097726 0.702146 0.803463 0.0977395 
0.8033 0.8033 0.0976797 0.904731 0.803185 0.0974987 0.0954391 0.904561 0.0973528 
0.196815 0.904731 0.0974987 0.297918 0.90496 0.0975527 0.39896 0.905129 0.0975358 
0.5 0.905191 0.0975258 0.60104 0.905129 0.0975358 0.702082 0.90496 0.0975527 
0.803185 0.904731 0.0974987 0.904561 0.904561 0.0973528 0.0924094 0.0924094 0.192613 
0.194373 0.0921653 0.193081 0.296227 0.0917973 0.193105 0.398096 0.091505 0.193024 
0.5 0.091396 0.19298 0.601904 0.091505 0.193024 0.703773 0.0917973 0.193105 
0.805627 0.0921653 0.193081 0.907591 0.0924094 0.192613 0.0921653 0.194373 0.193081 
0.194205 0.194205 0.193619 0.296125 0.193923 0.193658 0.39805 0.193691 0.193585 
0.5 0.193602 0.193542 0.60195 0.193691 0.193585 0.703875 0.193923 0.193658 
0.805795 0.194205 0.193619 0.907835 0.194373 0.193081 0.0917973 0.296227 0.193105 
0.193923 0.296125 0.193658 0.295932 0.295932 0.19369 0.397952 0.295769 0.193602 
0.5 0.295707 0.193554 0.602048 0.295769 0.193602 0.704068 0.295932 0.19369 
0.806077 0.296125 0.193658 0.908203 0.296227 0.193105 0.091505 0.398096 0.193024 
0.193691 0.39805 0.193585 0.295769 0.397952 0.193602 0.397868 0.397868 0.193498 
0.5 0.397836 0.193444 0.602132 0.397868 0.193498 0.704231 0.397952 0.193602 
0.806309 0.39805 0.193585 0.908495 0.398096 0.193024 0.091396 0.5 0.19298 
0.193602 0.5 0.193542 0.295707 0.5 0.193554 0.397836 0.5 0.193444 
0.5 0.5 0.193386 0.602165 0.5 0.193444 0.704293 0.5 0.193554 
0.806398 0.5 0.193542 0.908604 0.5 0.19298 0.091505 0.601904 0.193024 
0.193691 0.60195 0.193585 0.295769 0.602048 0.193602 0.397868 0.602132 0.193498 
0.5 0.602165 0.193444 0.602132 0.602132 0.193498 0.704231 0.602048 0.193602 
0.806309 0.60195 0.193585 0.908495 0.601904 0.193024 0.0917973 0.703773 0.193105 
0.193923 0.703875 0.193658 0.295932 0.704068 0.19369 0.397952 0.704231 0.193602 
0.5 0.704293 0.193554 0.602048 0.704231 0.193602 0.704068 0.704068 0.19369 
0.806077 0.703875 0.193658 0.908203 0.703773 0.193105 0.0921653 0.805627 0.193081 
0.194205 0.805795 0.193619 0.296125 0.806077 0.193658 0.39805 0.806309 0.193585 
0.5 0.806398 0.193542 0.60195 0.806309 0.193585 0.703875 0.806077 0.193658 
0.805795 0.805795 0.193619 0.907835 0.805627 0.193081 0.0924094 0.907591 0.192613 
0.194373 0.907835 0.193081 0.296227 0.908203 0.193105 0.398096 0.908495 0.193024 
0.5 0.908604 0.19298 0.601904 0.908495 0.193024 0.703773 0.908203 0.193105 
0.805627 0.907835 0.193081 0.907591 0.907591 0.192613 0.0906904 0.0906904 0.288032 
0.192709 0.0903015 0.288307 0.294969 0.0897862 0.288135 0.397425 0.0893654 0.287878 
0.5 0.0892065 0.287767 0.602575 0.0893654 0.287878 0.705031 0.0897862 0.288135 
0.807291 0.0903015 0.288307 0.90931 0.0906904 0.288032 0.0903015 0.192709 0.288307 
0.192427 0.192427 0.288596 0.294794 0.192 0.288416 0.397342 0.191646 0.288143 
0.5 0.191511 0.288026 0.602658 0.191646 0.288143 0.705206 0.192 0.288416 
0.807573 0.192427 0.288596 0.909698 0.192709 0.288307 0.0897862 0.294969 0.288135 
0.192 0.294794 0.288416 0.294491 0.294491 0.288181 0.397185 0.294235 0.287856 
0.5 0.294137 0.287719 0.602815 0.294235 0.287856 0.705509 0.294491 0.288181 
0.808 0.294794 0.288416 0.910214 0.294969 0.288135 0.0893654 0.397425 0.287878 
0.191646 0.397342 0.288143 0.294235 0.397185 0.287856 0.39705 0.39705 0.287483 
0.5 0.396998 0.287327 0.60295 0.39705 0.287483 0.705765 0.397185 0.287856 
0.808354 0.397342 0.288143 0.910635 0.397425 0.287878 0.0892065 0.5 0.287767 
0.191511 0.5 0.288026 0.294137 0.5 0.287719 0.396998 0.5 0.287327 
0.5 0.5 0.287162 0.603002 0.5 0.287327 0.705863 0.5 0.287719 
0.808489 0.5 0.288026 0.910793 0.5 0.287767 0.0893654 0.602575 0.287878 
0.191646 0.602658 0.288143 0.294235 0.602815 0.287856 0.39705 0.60295 0.287483 
0.5 0.603002 0.287327 0.60295 0.60295 0.287483 0.705765 0.602815 0.287856 
0.808354 0.602658 0.288143 0.910635 0.602575 0.287878 0.0897862 0.705031 0.288135 
0.192 0.705206 0.288416 0.294491 0.705509 0.288181 0.397185 0.705765 0.287856 
0.5 0.705863 0.287719 0.602815 0.705765 0.287856 0.705509 0.705509 0.288181 
0.808 0.705206 0.288416 0.910214 0.705031 0.288135 0.0903015 0.807291 0.288307 
0.192427 0.807573 0.288596 0.294794 0.808 0.288416 0.397342 0.808354 0.288143 
0.5 0.808489 0.288026 0.602658 0.808354 0.288143 0.705206 0.808 0.288416 
0.807573 0.807573 0.288596 0.909698 0.807291 0.288307 0.0906904 0.90931 0.288032 
0.192709 0.909698 0.288307 0.294969 0.910214 0.288135 0.397425 0.910635 0.287878 
0.5 0.910793 0.287767 0.602575 0.910635 0.287878 0.705031 0.910214 0.288135 
0.807291 0.909698 0.288307 0.90931 0.90931 0.288032 0.0896344 0.0896344 0.383938 
0.191596 0.0890618 0.383639 0.294056 0.0882881 0.382993 0.396917 0.0876683 0.382412 
0.5 0.0874344 0.382185 0.603083 0.0876683 0.382412 0.705944 0.0882881 0.382993 
0.808404 0.0890618 0.383639 0.910366 0.0896344 0.383938 0.0890618 0.191596 0.383639 
0.191149 0.191149 0.383294 0.293752 0.19048 0.382546 0.396765 0.189935 0.381884 
0.5 0.189728 0.381625 0.603235 0.189935 0.381884 0.706248 0.19048 0.382546 
0.808851 0.191149 0.383294 0.910938 0.191596 0.383639 0.0882881 0.294056 0.382993 
0.19048 0.293752 0.382546 0.293259 0.293259 0.38162 0.396504 0.292852 0.380812 
0.5 0.292697 0.380497 0.603496 0.292852 0.380812 0.706741 0.293259 0.38162 
0.80952 0.293752 0.382546 0.911712 0.294056 0.382993 0.0876683 0.396917 0.382412 
0.189935 0.396765 0.381884 0.292852 0.396504 0.380812 0.396287 0.396287 0.379881 
0.5 0.396204 0.379519 0.603713 0.396287 0.379881 0.707148 0.396504 0.380812 
0.810065 0.396765 0.381884 0.912332 0.396917 0.382412 0.0874344 0.5 0.382185 
0.189728 0.5 0.381625 0.292697 0.5 0.380497 0.396204 0.5 0.379519 
0.5 0.5 0.379139 0.603796 0.5 0.379519 0.707303 0.5 0.380497 
0.810272 0.5 0.381625 0.912566 0.5 0.382185 0.0876683 0.603083 0.382412 
0.189935 0.603235 0.381884 0.292852 0.603496 0.380812 0.396287 0.603713 0.379881 
0.5 0.603796 0.379519 0.603713 0.603713 0.379881 0.707148 0.603496 0.380812 
0.810065 0.603235 0.381884 0.912332 0.603083 0.382412 0.0882881 0.705944 0.382993 
0.19048 0.706248 0.382546 0.293259 0.706741 0.38162 0.396504 0.707148 0.380812 
0.5 0.707303 0.380497 0.603496 0.707148 0.380812 0.706741 0.706741 0.38162 
0.80952 0.706248 0.382546 0.911712 0.705944 0.382993 0.0890618 0.808404 0.383639 
0.191149 0.808851 0.383294 0.293752 0.80952 0.382546 0.396765 0.810065 0.381884 
0.5 0.810272 0.381625 0.603235 0.810065 0.381884 0.706248 0.80952 0.382546 
0.808851 0.808851 0.383294 0.910938 0.808404 0.383639 0.0896344 0.910366 0.383938 
0.191596 0.910938 0.383639 0.294056 0.911712 0.382993 0.396917 0.912332 0.382412 
0.5 0.912566 0.382185 0.603083 0.912332 0.382412 0.705944 0.911712 0.382993 
0.808404 0.910938 0.383639 0.910366 0.910366 0.383938 0.0890428 0.0890428 0.480362 
0.190876 0.0881697 0.479258 0.293417 0.0869754 0.477888 0.396548 0.0860348 0.476829 
0.5 0.0856848 0.476436 0.603452 0.0860348 0.476829 0.706583 0.0869754 0.477888 
0.809124 0.0881697 0.479258 0.910957 0.0890428 0.480362 0.0881697 0.190876 0.479258 
0.190134 0.190134 0.477957 0.292878 0.189057 0.476278 0.396267 0.188201 0.474984 
0.5 0.187879 0.474505 0.603733 0.188201 0.474984 0.707122 0.189057 0.476278 
0.809866 0.190134 0.477957 0.91183 0.190876 0.479258 0.0869754 0.293417 0.477888 
0.189057 0.292878 0.476278 0.292056 0.292056 0.474148 0.395823 0.291401 0.472506 
0.5 0.291154 0.471894 0.604177 0.291401 0.472506 0.707944 0.292056 0.474148 
0.810943 0.292878 0.476278 0.913025 0.293417 0.477888 0.0860348 0.396548 0.476829 
0.188201 0.396267 0.474984 0.291401 0.395823 0.472506 0.395468 0.395468 0.470588 
0.5 0.395335 0.469872 0.604532 0.395468 0.470588 0.708599 0.395823 0.472506 
0.811799 0.396267 0.474984 0.913965 0.396548 0.476829 0.0856848 0.5 0.476436 
0.187879 0.5 0.474505 0.291154 0.5 0.471894 0.395335 0.5 0.469872 
0.5 0.5 0.469117 0.604665 0.5 0.469872 0.708846 0.5 0.471894 
0.812121 0.5 0.474505 0.914315 0.5 0.476436 0.0860348 0.603452 0.476829 
0.188201 0.603733 0.474984 0.291401 0.604177 0.472506 0.395468 0.604532 0.470588 
0.5 0.604665 0.469872 0.604532 0.604532 0.470588 0.708599 0.604177 0.472506 
0.811799 0.603733 0.474984 0.913965 0.603452 0.476829 0.0869754 0.706583 0.477888 
0.189057 0.707122 0.476278 0.292056 0.707944 0.474148 0.395823 0.708599 0.472506 
0.5 0.708846 0.471894 0.604177 0.708599 0.472506 0.707944 0.707944 0.474148 
0.810943 0.707122 0.476278 0.913025 0.706583 0.477888 0.0881697 0.809124 0.479258 
0.190134 0.809866 0.477957 0.292878 0.810943 0.476278 0.396267 0.811799 0.474984 
0.5 0.812121 0.474505 0.603733 0.811799 0.474984 0.707122 0.810943 0.476278 
0.809866 0.809866 0.477957 0.91183 0.809124 0.479258 0.0890428 0.910957 0.480362 
0.190876 0.91183 0.479258 0.293417 0.913025 0.477888 0.396548 0.913965 0.476829 
0.5 0.914315 0.476436 0.603452 0.913965 0.476829 0.706583 0.913025 0.477888 
0.809124 0.91183 0.479258 0.910957 0.910957 0.480362 0.0889698 0.0889698 0.577391 
0.190586 0.0876335 0.575329 0.293085 0.0858037 0.57304 0.396342 0.0844178 0.571394 
0.5 0.0839155 0.570802 0.603658 0.0844178 0.571394 0.706915 0.0858037 0.57304 
0.809414 0.0876335 0.575329 0.91103 0.0889698 0.577391 0.0876335 0.190586 0.575329 
0.189367 0.189367 0.572756 0.292148 0.187628 0.569734 0.39584 0.186316 0.567546 
0.5 0.185842 0.56676 0.60416 0.186316 0.567546 0.707852 0.187628 0.569734 
0.810633 0.189367 0.572756 0.912367 0.190586 0.575329 0.0858037 0.293085 0.57304 
0.187628 0.292148 0.569734 0.290768 0.290768 0.565675 0.39508 0.28974 0.562729 
0.5 0.289372 0.561652 0.60492 0.28974 0.562729 0.709232 0.290768 0.565675 
0.812372 0.292148 0.569734 0.914196 0.293085 0.57304 0.0844178 0.396342 0.571394 
0.186316 0.39584 0.567546 0.28974 0.39508 0.562729 0.394524 0.394524 0.559229 
0.5 0.394327 0.557958 0.605476 0.394524 0.559229 0.71026 0.39508 0.562729 
0.813684 0.39584 0.567546 0.915582 0.396342 0.571394 0.0839155 0.5 0.570802 
0.185842 0.5 0.56676 0.289372 0.5 0.561652 0.394327 0.5 0.557958 
0.5 0.5 0.556616 0.605673 0.5 0.557958 0.710628 0.5 0.561652 
0.814158 0.5 0.56676 0.916084 0.5 0.570802 0.0844178 0.603658 0.571394 
0.186316 0.60416 0.567546 0.28974 0.60492 0.562729 0.394524 0.605476 0.559229 
0.5 0.605673 0.557958 0.605476 0.605476 0.559229 0.71026 0.60492 0.562729 
0.813684 0.60416 0.567546 0.915582 0.603658 0.571394 0.0858037 0.706915 0.57304 
0.187628 0.707852 0.569734 0.290768 0.709232 0.565675 0.39508 0.71026 0.562729 
0.5 0.710628 0.561652 0.60492 0.71026 0.562729 0.709232 0.709232 0.565675 
0.812372 0.707852 0.569734 0.914196 0.706915 0.57304 0.0876335 0.809414 0.575329 
0.189367 0.810633 0.572756 0.292148 0.812372 0.569734 0.39584 0.813684 0.567546 
0.5 0.814158 0.56676 0.60416 0.813684 0.567546 0.707852 0.812372 0.569734 
0.810633 0.810633 0.572756 0.912367 0.809414 0.575329 0.0889698 0.91103 0.577391 
0.190586 0.912367 0.575329 0.293085 0.914196 0.57304 0.396342 0.915582 0.571394 
0.5 0.916084 0.570802 0.603658 0.915582 0.571394 0.706915 0.914196 0.57304 
0.809414 0.912367 0.575329 0.91103 0.91103 0.577391 0.0896896 0.0896896 0.67512 
0.190981 0.0877887 0.672078 0.293255 0.0851318 0.668787 0.396404 0.0832904 0.666549 
0.5 0.0826642 0.665741 0.603596 0.0832904 0.666549 0.706745 0.0851318 0.668787 
0.80902 0.0877887 0.672078 0.91031 0.0896896 0.67512 0.0877887 0.190981 0.672078 
0.189102 0.189102 0.667962 0.291733 0.186354 0.663157 0.395577 0.184541 0.659818 
0.5 0.183936 0.658651 0.604423 0.184541 0.659818 0.708267 0.186354 0.663157 
0.810898 0.189102 0.667962 0.912211 0.190981 0.672078 0.0851318 0.293255 0.668787 
0.186354 0.291733 0.663157 0.289401 0.289401 0.655935 0.39431 0.287962 0.651061 
0.5 0.287494 0.649328 0.60569 0.287962 0.651061 0.710599 0.289401 0.655935 
0.813646 0.291733 0.663157 0.914868 0.293255 0.668787 0.0832904 0.396404 0.666549 
0.184541 0.395577 0.659818 0.287962 0.39431 0.651061 0.393546 0.393546 0.64524 
0.5 0.393312 0.64324 0.606454 0.393546 0.64524 0.712038 0.39431 0.651061 
0.815459 0.395577 0.659818 0.91671 0.396404 0.666549 0.0826642 0.5 0.665741 
0.183936 0.5 0.658651 0.287494 0.5 0.649328 0.393312 0.5 0.64324 
0.5 0.5 0.64115 0.606688 0.5 0.64324 0.712506 0.5 0.649328 
0.816064 0.5 0.658651 0.917336 0.5 0.665741 0.0832904 0.603596 0.666549 
0.184541 0.604423 0.659818 0.287962 0.60569 0.651061 0.393546 0.606454 0.64524 
0.5 0.606688 0.64324 0.606454 0.606454 0.64524 0.712038 0.60569 0.651061 
0.815459 0.604423 0.659818 0.91671 0.603596 0.666549 0.0851318 0.706745 0.668787 
0.186354 0.708267 0.663157 0.289401 0.710599 0.655935 0.39431 0.712038 0.651061 
0.5 0.712506 0.649328 0.60569 0.712038 0.651061 0.710599 0.710599 0.655935 
0.813646 0.708267 0.663157 0.914868 0.706745 0.668787 0.0877887 0.80902 0.672078 
0.189102 0.810898 0.667962 0.291733 0.813646 0.663157 0.395577 0.815459 0.659818 
0.5 0.816064 0.658651 0.604423 0.815459 0.659818 0.708267 0.813646 0.663157 
0.810898 0.810898 0.667962 0.912211 0.80902 0.672078 0.0896896 0.91031 0.67512 
0.190981 0.912211 0.672078 0.293255 0.914868 0.668787 0.396404 0.91671 0.666549 
0.5 0.917336 0.665741 0.603596 0.91671 0.666549 0.706745 0.914868 0.668787 
0.80902 0.912211 0.672078 0.91031 0.91031 0.67512 0.0916428 0.0916428 0.773562 
0.1925 0.0893453 0.769742 0.294288 0.0859382 0.765741 0.396955 0.0840288 0.763048 
0.5 0.0835491 0.761941 0.603045 0.0840288 0.763048 0.705712 0.0859382 0.765741 
0.8075 0.0893453 0.769742 0.908357 0.0916428 0.773562 0.0893453 0.1925 0.769742 
0.190074 0.190074 0.764016 0.292175 0.185739 0.757223 0.395784 0.183809 0.752538 
0.5 0.183477 0.750955 0.604216 0.183809 0.752538 0.707825 0.185739 0.757223 
0.809926 0.190074 0.764016 0.910655 0.1925 0.769742 0.0859382 0.294288 0.765741 
0.185739 0.292175 0.757223 0.288225 0.288225 0.744153 0.393792 0.286655 0.736829 
0.5 0.286422 0.734446 0.606208 0.286655 0.736829 0.711775 0.288225 0.744153 
0.814261 0.292175 0.757223 0.914062 0.294288 0.765741 0.0840288 0.396955 0.763048 
0.183809 0.395784 0.752538 0.286655 0.393792 0.736829 0.393041 0.393041 0.728356 
0.5 0.392942 0.7259 0.606959 0.393041 0.728356 0.713345 0.393792 0.736829 
0.816191 0.395784 0.752538 0.915971 0.396955 0.763048 0.0835491 0.5 0.761941 
0.183477 0.5 0.750955 0.286422 0.5 0.734446 0.392942 0.5 0.7259 
0.5 0.5 0.723291 0.607058 0.5 0.7259 0.713578 0.5 0.734446 
0.816523 0.5 0.750955 0.916451 0.5 0.761941 0.0840288 0.603045 0.763048 
0.183809 0.604216 0.752538 0.286655 0.606208 0.736829 0.393041 0.606959 0.728356 
0.5 0.607058 0.7259 0.606959 0.606959 0.728356 0.713345 0.606208 0.736829 
0.816191 0.604216 0.752538 0.915971 0.603045 0.763048 0.0859382 0.705712 0.765741 
0.185739 0.707825 0.757223 0.288225 0.711775 0.744153 0.393792 0.713345 0.736829 
0.5 0.713578 0.734446 0.606208 0.713345 0.736829 0.711775 0.711775 0.744153 
0.814261 0.707825 0.757223 0.914062 0.705712 0.765741 0.0893453 0.8075 0.769742 
0.190074 0.809926 0.764016 0.292175 0.814261 0.757223 0.395784 0.816191 0.752538 
0.5 0.816523 0.750955 0.604216 0.816191 0.752538 0.707825 0.814261 0.757223 
0.809926 0.809926 0.764016 0.910655 0.8075 0.769742 0.0916428 0.908357 0.773562 
0.1925 0.910655 0.769742 0.294288 0.914062 0.765741 0.396955 0.915971 0.763048 
0.5 0.916451 0.761941 0.603045 0.915971 0.763048 0.705712 0.914062 0.765741 
0.8075 0.910655 0.769742 0.908357 0.908357 0.773562 0.0951618 0.0951618 0.872658 
0.195453 0.0934157 0.868415 0.296587 0.0904708 0.864589 0.398396 0.0895392 0.861365 
0.5 0.0894366 0.859988 0.601604 0.0895392 0.861365 0.703413 0.0904708 0.864589 
0.804547 0.0934157 0.868415 0.904838 0.0951618 0.872658 0.0934157 0.195453 0.868415 
0.193524 0.193524 0.861094 0.295051 0.187208 0.853845 0.397321 0.187497 0.847357 
0.5 0.187376 0.845575 0.602679 0.187497 0.847357 0.704949 0.187208 0.853845 
0.806476 0.193524 0.861094 0.906584 0.195453 0.868415 0.0904708 0.296587 0.864589 
0.187208 0.295051 0.853845 0.286949 0.286949 0.827034 0.394544 0.287657 0.818753 
0.5 0.287717 0.817174 0.605456 0.287657 0.818753 0.713051 0.286949 0.827034 
0.812792 0.295051 0.853845 0.909529 0.296587 0.864589 0.0895392 0.398396 0.861365 
0.187497 0.397321 0.847357 0.287657 0.394544 0.818753 0.394717 0.394717 0.810255 
0.5 0.394931 0.808977 0.605283 0.394717 0.810255 0.712343 0.394544 0.818753 
0.812503 0.397321 0.847357 0.910461 0.398396 0.861365 0.0894366 0.5 0.859988 
0.187376 0.5 0.845575 0.287717 0.5 0.817174 0.394931 0.5 0.808977 
0.5 0.5 0.807543 0.605069 0.5 0.808977 0.712283 0.5 0.817174 
0.812624 0.5 0.845575 0.910563 0.5 0.859988 0.0895392 0.601604 0.861365 
0.187497 0.602679 0.847357 0.287657 0.605456 0.818753 0.394717 0.605283 0.810255 
0.5 0.605069 0.808977 0.605283 0.605283 0.810255 0.712343 0.605456 0.818753 
0.812503 0.602679 0.847357 0.910461 0.601604 0.861365 0.0904708 0.703413 0.864589 
0.187208 0.704949 0.853845 0.286949 0.713051 0.827034 0.394544 0.712343 0.818753 
0.5 0.712283 0.817174 0.605456 0.712343 0.818753 0.713051 0.713051 0.827034 
0.812792 0.704949 0.853845 0.909529 0.703413 0.864589 0.0934157 0.804547 0.868415 
0.193524 0.806476 0.861094 0.295051 0.812792 0.853845 0.397321 0.812503 0.847357 
0.5 0.812624 0.845575 0.602679 0.812503 0.847357 0.704949 0.812792 0.853845 
0.806476 0.806476 0.861094 0.906584 0.804547 0.868415 0.0951618 0.904838 0.872658 
0.195453 0.906584 0.868415 0.296587 0.909529 0.864589 0.398396 0.910461 0.861365 
0.5 0.910563 0.859988 0.601604 0.910461 0.861365 0.703413 0.909529 0.864589 
0.804547 0.906584 0.868415 0.904838 0.904838 0.872658 
CELLS 1000 9000
8 0 8 512 106 43 116 602 367 
8 8 9 513 512 116 117 603 602 
8 9 10 514 513 117 118 604 603 
8 10 11 515 514 118 119 605 604 
8 11 12 516 515 119 120 606 605 
8 12 13 517 516 120 121 607 606 
8 13 14 518 517 121 122 608 607 
8 14 15 519 518 122 123 609 608 
8 15 16 520 519 123 124 610 609 
8 16 1 44 520 124 17 197 610 
8 106 512 503 105 367 602 611 366 
8 512 513 504 503 602 603 612 611 
8 513 514 505 504 603 604 613 612 
8 514 515 506 505 604 605 614 613 
8 515 516 507 506 605 606 615 614 
8 516 517 508 507 606 607 616 615 
8 517 518 509 508 607 608 617 616 
8 518 519 510 509 608 609 618 617 
8 519 520 511 510 609 610 619 618 
8 520 44 45 511 610 197 198 619 
8 105 503 494 104 366 611 620 365 
8 503 504 495 494 611 612 621 620 
8 504 505 496 495 612 613 622 621 
8 505 506 497 496 613 614 623 622 
8 506 507 498 497 614 615 624 623 
8 507 508 499 498 615 616 625 624 
8 508 509 500 499 616 617 626 625 
8 509 510 501 500 617 618 627 626 
8 510 511 502 501 618 619 628 627 
8 511 45 46 502 619 198 199 628 
8 104 494 485 103 365 620 629 364 
8 494 495 486 485 620 621 630 629 
8 495 496 487 486 621 622 631 630 
8 496 497 488 487 622 623 632 631 
8 497 498 489 488 623 624 633 632 
8 498 499 490 489 624 625 634 633 
8 499 500 491 490 625 626 635 634 
8 500 501 492 491 626 627 636 635 
8 501 502 493 492 627 628 637 636 
8 502 46 47 493 628 199 200 637 
8 103 485 476 102 364 629 638 363 
8 485 486 477 476 629 630 639 638 
8 486 487 478 477 630 631 640 639 
8 487 488 479 478 631 632 641 640 
8 488 489 480 479 632 633 642 641 
8 489 490 481 480 633 634 643 642 
8 490 491 482 481 634 635 644 643 
8 491 492 483 482 635 636 645 644 
8 492 493 484 483 636 637 646 645 
8 493 47 48 484 637 200 201 646 
8 102 476 467 101 363 638 647 362 
8 476 477 468 467 638 639 648 647 
8 477 478 469 468 639 640 649 648 
8 478 479 470 469 640 641 650 649 
8 479 480 471 470 641 642 651 650 
8 480 481 472 471 642 643 652 651 
8 481 482 473 472 643 644 653 652 
8 482 483 474 473 644 645 654 653 
8 483 484 475 474 645 646 655 654 
8 484 48 49 475 646 201 202 655 
8 101 467 458 100 362 647 656 361 
8 467 468 459 458 647 648 657 656 
8 468 469 460 459 648 649 658 657 
8 469 470 461 460 649 650 659 658 
8 470 471 462 461 650 651 660 659 
8 471 472 463 462 651 652 661 660 
8 472 473 464 463 652 653 662 661 
8 473 474 465 464 653 654 663 662 
8 474 475 466 465 654 655 664 663 
8 475 49 50 466 655 202 203 664 
8 100 458 449 99 361 656 665 360 
8 458 459 450 449 656 657 666 665 
8 459 460 451 450 657 658 667 666 
8 460 461 452 451 658 659 668 667 
8 461 462 453 452 659 660 669 668 
8 462 463 454 453 660 661 670 669 
8 463 464 455 454 661 662 671 670 
8 464 465 456 455 662 663 672 671 
8 465 466 457 456 663 664 673 672 
8 466 50 51 457 664 203 204 673 
8 99 449 440 98 360 665 674 359 
8 449 450 441 440 665 666 675 674 
8 450 451 442 441 666 667 676 675 
8 451 452 443 442 667 668 677 676 
8 452 453 444 443 668 669 678 677 
8 453 454 445 444 669 670 679 678 
8 454 455 446 445 670 671 680 679 
8 455 456 447 446 671 672 681 680 
8 456 457 448 447 672 673 682 681 
8 457 51 52 448 673 204 205 682 
8 98 440 79 3 359 674 286 80 
8 440 441 78 79 674 675 285 286 
8 441 442 77 78 675 676 284 285 
8 442 443 76 77 676 677 283 284 
8 443 444 75 76 677 678 282 283 
8 444 445 74 75 678 679 281 282 
8 445 446 73 74 679 680 280 281 
8 446 447 72 73 680 681 279 280 
8 447 448 71 72 681 682 278 279 
8 448 52 2 71 682 205 53 278 
8 43 116 602 367 42 125 683 376 
8 116 117 603 602 125 126 684 683 
8 117 118 604 603 126 127 685 684 
8 118 119 605 604 127 128 686 685 
8 119 120 606 605 128 129 687 686 
8 120 121 607 606 129 130 688 687 
8 121 122 608 607 130 131 689 688 
8 122 123 609 608 131 132 690 689 
8 123 124 610 609 132 133 691 690 
8 124 17 197 610 133 18 206 691 
8 367 602 611 366 376 683 692 375 
8 602 603 612 611 683 684 693 692 
8 603 604 613 612 684 685 694 693 
8 604 605 614 613 685 686 695 694 
8 605 606 615 614 686 687 696 695 
8 606 607 616 615 687 688 697 696 
8 607 608 617 616 688 689 698 697 
8 608 609 618 617 689 690 699 698 
8 609 610 619 618 690 691 700 699 
8 610 197 198 619 691 206 207 700 
8 366 611 620 365 375 692 701 374 
8 611 612 621 620 692 693 702 701 
8 612 613 622 621 693 694 703 702 
8 613 614 623 622 694 695 704 703 
8 614 615 624 623 695 696 705 704 
8 615 616 625 624 696 697 706 705 
8 616 617 626 625 697 698 707 706 
8 617 618 627 626 698 699 708 707 
8 618 619 628 627 699 700 709 708 
8 619 198 199 628 700 207 208 709 
8 365 620 629 364 374 701 710 373 
8 620 621 630 629 701 702 711 710 
8 621 622 631 630 702 703 712 711 
8 622 623 632 631 703 704 713 712 
8 623 624 633 632 704 705 714 713 
8 624 625 634 633 705 706 715 714 
8 625 626 635 634 706 707 716 715 
8 626 627 636 635 707 708 717 716 
8 627 628 637 636 708 709 718 717 
8 628 199 200 637 709 208 209 718 
8 364 629 638 363 373 710 719 372 
8 629 630 639 638 710 711 720 719 
8 630 631 640 639 711 712 721 720 
8 631 632 641 640 712 713 722 721 
8 632 633 642 641 713 714 723 722 
8 633 634 643 642 714 715 724 723 
8 634 635 644 643 715 716 725 724 
8 635 636 645 644 716 717 726 725 
8 636 637 646 645 717 718 727 726 
8 637 200 201 646 718 209 210 727 
8 363 638 647 362 372 719 728 371 
8 638 639 648 647 719 720 729 728 
8 639 640 649 648 720 721 730 729 
8 640 641 650 649 721 722 731 730 
8 641 642 651 650 722 723 732 731 
8 642 643 652 651 723 724 733 732 
8 643 644 653 652 724 725 734 733 
8 644 645 654 653 725 726 735 734 
8 645 646 655 654 726 727 736 735 
8 646 201 202 655 727 210 211 736 
8 362 647 656 361 371 728 737 370 
8 647 648 657 656 728 729 738 737 
8 648 649 658 657 729 730 739 738 
8 649 650 659 658 730 731 740 739 
8 650 651 660 659 731 732 741 740 
8 651 652 661 660 732 733 742 741 
8 652 653 662 661 733 734 743 742 
8 653 654 663 662 734 735 744 743 
8 654 655 664 663 735 736 745 744 
8 655 202 203 664 736 211 212 745 
8 361 656 665 360 370 737 746 369 
8 656 657 666 665 737 738 747 746 
8 657 658 667 666 738 739 748 747 
8 658 659 668 667 739 740 749 748 
8 659 660 669 668 740 741 750 749 
8 660 661 670 669 741 742 751 750 
8 661 662 671 670 742 743 752 751 
8 662 663 672 671 743 744 753 752 
8 663 664 673 672 744 745 754 753 
8 664 203 204 673 745 212 213 754 
8 360 665 674 359 369 746 755 368 
8 665 666 675 674 746 747 756 755 
8 666 667 676 675 747 748 757 756 
8 667 668 677 676 748 749 758 757 
8 668 669 678 677 749 750 759 758 
8 669 670 679 678 750 751 760 759 
8 670 671 680 679 751 752 761 760 
8 671 672 681 680 752 753 762 761 
8 672 673 682 681 753 754 763 762 
8 673 204 205 682 754 213 214 763 
8 359 674 286 80 368 755 295 81 
8 674 675 285 286 755 756 294 295 
8 675 676 284 285 756 757 293 294 
8 676 677 283 284 757 758 292 293 
8 677 678 282 283 758 759 291 292 
8 678 679 281 282 759 760 290 291 
8 679 680 280 281 760 761 289 290 
8 680 681 279 280 761 762 288 289 
8 681 682 278 279 762 763 287 288 
8 682 205 53 278 763 214 54 287 
8 42 125 683 376 41 134 764 385 
8 125 126 684 683 134 135 765 764 
8 126 127 685 684 135 136 766 765 
8 127 128 686 685 136 137 767 766 
8 128 129 687 686 137 138 768 767 
8 129 130 688 687 138 139 769 768 
8 130 131 689 688 139 140 770 769 
8 131 132 690 689 140 141 771 770 
8 132 133 691 690 141 142 772 771 
8 133 18 206 691 142 19 215 772 
8 376 683 692 375 385 764 773 384 
8 683 684 693 692 764 765 774 773 
8 684 685 694 693 765 766 775 774 
8 685 686 695 694 766 767 776 775 
8 686 687 696 695 767 768 777 776 
8 687 688 697 696 768 769 778 777 
8 688 689 698 697 769 770 779 778 
8 689 690 699 698 770 771 780 779 
8 690 691 700 699 771 772 781 780 
8 691 206 207 700 772 215 216 781 
8 375 692 701 374 384 773 782 383 
8 692 693 702 701 773 774 783 782 
8 693 694 703 702 774 775 784 783 
8 694 695 704 703 775 776 785 784 
8 695 696 705 704 776 777 786 785 
8 696 697 706 705 777 778 787 786 
8 697 698 707 706 778 779 788 787 
8 698 699 708 707 779 780 789 788 
8 699 700 709 708 780 781 790 789 
8 700 207 208 709 781 216 217 790 
8 374 701 710 373 383 782 791 382 
8 701 702 711 710 782 783 792 791 
8 702 703 712 711 783 784 793 792 
8 703 704 713 712 784 785 794 793 
8 704 705 714 713 785 786 795 794 
8 705 706 715 714 786 787 796 795 
8 706 707 716 715 787 788 797 796 
8 707 708 717 716 788 789 798 797 
8 708 709 718 717 789 790 799 798 
8 709 208 209 718 790 217 218 799 
8 373 710 719 372 382 791 800 381 
8 710 711 720 719 791 792 801 800 
8 711 712 721 720 792 793 802 801 
8 712 713 722 721 793 794 803 802 
8 713 714 723 722 794 795 804 803 
8 714 715 724 723 795 796 805 804 
8 715 716 725 724 796 797 806 805 
8 716 717 726 725 797 798 807 806 
8 717 718 727 726 798 799 808 807 
8 718 209 210 727 799 218 219 808 
8 372 719 728 371 381 800 809 380 
8 719 720 729 728 800 801 810 809 
8 720 721 730 729 801 802 811 810 
8 721 722 731 730 802 803 812 811 
8 722 723 732 731 803 804 813 812 
8 723 724 733 732 804 805 814 813 
8 724 725 734 733 805 806 815 814 
8 725 726 735 734 806 807 816 815 
8 726 727 736 735 807 808 817 816 
8 727 210 211 736 808 219 220 817 
8 371 728 737 370 380 809 818 379 
8 728 729 738 737 809 810 819 818 
8 729 730 739 738 810 811 820 819 
8 730 731 740 739 811 812 821 820 
8 731 732 741 740 812 813 822 821 
8 732 733 742 741 813 814 823 822 
8 733 734 743 742 814 815 824 823 
8 734 735 744 743 815 816 825 824 
8 735 736 745 744 816 817 826 825 
8 736 211 212 745 817 220 221 826 
8 370 737 746 369 379 818 827 378 
8 737 738 747 746 818 819 828 827 
8 738 739 748 747 819 820 829 828 
8 739 740 749 748 820 821 830 829 
8 740 741 750 749 821 822 831 830 
8 741 742 751 750 822 823 832 831 
8 742 743 752 751 823 824 833 832 
8 743 744 753 752 824 825 834 833 
8 744 745 754 753 825 826 835 834 
8 745 212 213 754 826 221 222 835 
8 369 746 755 368 378 827 836 377 
8 746 747 756 755 827 828 837 836 
8 747 748 757 756 828 829 838 837 
8 748 749 758 757 829 830 839 838 
8 749 750 759 758 830 831 840 839 
8 750 751 760 759 831 832 841 840 
8 751 752 761 760 832 833 842 841 
8 752 753 762 761 833 834 843 842 
8 753 754 763 762 834 835 844 843 
8 754 213 214 763 835 222 223 844 
8 368 755 295 81 377 836 304 82 
8 755 756 294 295 836 837 303 304 
8 756 757 293 294 837 838 302 303 
8 757 758 292 293 838 839 301 302 
8 758 759 291 292 839 840 300 301 
8 759 760 290 291 840 841 299 300 
8 760 761 289 290 841 842 298 299 
8 761 762 288 289 842 843 297 298 
8 762 763 287 288 843 844 296 297 
8 763 214 54 287 844 223 55 296 
8 41 134 764 385 40 143 845 394 
8 134 135 765 764 143 144 846 845 
8 135 136 766 765 144 145 847 846 
8 136 137 767 766 145 146 848 847 
8 137 138 768 767 146 147 849 848 
8 138 139 769 768 147 148 850 849 
8 139 140 770 769 148 149 851 850 
8 140 141 771 770 149 150 852 851 
8 141 142 772 771 150 151 853 852 
8 142 19 215 772 151 20 224 853 
8 385 764 773 384 394 845 854 393 
8 764 765 774 773 845 846 855 854 
8 765 766 775 774 846 847 856 855 
8 766 767 776 775 847 848 857 856 
8 767 768 777 776 848 849 858 857 
8 768 769 778 777 849 850 859 858 
8 769 770 779 778 850 851 860 859 
8 770 771 780 779 851 852 861 860 
8 771 772 781 780 852 853 862 861 
8 772 215 216 781 853 224 225 862 
8 384 773 782 383 393 854 863 392 
8 773 774 783 782 854 855 864 863 
8 774 775 784 783 855 856 865 864 
8 775 776 785 784 856 857 866 865 
8 776 777 786 785 857 858 867 866 
8 777 778 787 786 858 859 868 867 
8 778 779 788 787 859 860 869 868 
8 779 780 789 788 860 861 870 869 
8 780 781 790 789 861 862 871 870 
8 781 216 217 790 862 225 226 871 
8 383 782 791 382 392 863 872 391 
8 782 783 792 791 863 864 873 872 
8 783 784 793 792 864 865 874 873 
8 784 785 794 793 865 866 875 874 
8 785 786 795 794 866 867 876 875 
8 786 787 796 795 867 868 877 876 
8 787 788 797 796 868 869 878 877 
8 788 789 798 797 869 870 879 878 
8 789 790 799 798 870 871 880 879 
8 790 217 218 799 871 226 227 880 
8 382 791 800 381 391 872 881 390 
8 791 792 801 800 872 873 882 881 
8 792 793 802 801 873 874 883 882 
8 793 794 803 802 874 875 884 883 
8 794 795 804 803 875 876 885 884 
8 795 796 805 804 876 877 886 885 
8 796 797 806 805 877 878 887 886 
8 797 798 807 806 878 879 888 887 
8 798 799 808 807 879 880 889 888 
8 799 218 219 808 880 227 228 889 
8 381 800 809 380 390 881 890 389 
8 800 801 810 809 881 882 891 890 
8 801 802 811 810 882 883 892 891 
8 802 803 812 811 883 884 893 892 
8 803 804 813 812 884 885 894 893 
8 804 805 814 813 885 886 895 894 
8 805 806 815 814 886 887 896 895 
8 806 807 816 815 887 888 897 896 
8 807 808 817 816 888 889 898 897 
8 808 219 220 817 889 228 229 898 
8 380 809 818 379 389 890 899 388 
8 809 810 819 818 890 891 900 899 
8 810 811 820 819 891 892 901 900 
8 811 812 821 820 892 893 902 901 
8 812 813 822 821 893 894 903 902 
8 813 814 823 822 894 895 904 903 
8 814 815 824 823 895 896 905 904 
8 815 816 825 824 896 897 906 905 
8 816 817 826 825 897 898 907 906 
8 817 220 221 826 898 229 230 907 
8 379 818 827 378 388 899 908 387 
8 818 819 828 827 899 900 909 908 
8 819 820 829 828 900 901 910 909 
8 820 821 830 829 901 902 911 910 
8 821 822 831 830 902 903 912 911 
8 822 823 832 831 903 904 913 912 
8 823 824 833 832 904 905 914 913 
8 824 825 834 833 905 906 915 914 
8 825 826 835 834 906 907 916 915 
8 826 221 222 835 907 230 231 916 
8 378 827 836 377 387 908 917 386 
8 827 828 837 836 908 909 918 917 
8 828 829 838 837 909 910 919 918 
8 829 830 839 838 910 911 920 919 
8 830 831 840 839 911 912 921 920 
8 831 832 841 840 912 913 922 921 
8 832 833 842 841 913 914 923 922 
8 833 834 843 842 914 915 924 923 
8 834 835 844 843 915 916 925 924 
8 835 222 223 844 916 231 232 925 
8 377 836 304 82 386 917 313 83 
8 836 837 303 304 917 918 312 313 
8 837 838 302 303 918 919 311 312 
8 838 839 301 302 919 920 310 311 
8 839 840 300 301 920 921 309 310 
8 840 841 299 300 921 922 308 309 
8 841 842 298 299 922 923 307 308 
8 842 843 297 298 923 924 306 307 
8 843 844 296 297 924 925 305 306 
8 844 223 55 296 925 232 56 305 
8 40 143 845 394 39 152 926 403 
8 143 144 846 845 152 153 927 926 
8 144 145 847 846 153 154 928 927 
8 145 146 848 847 154 155 929 928 
8 146 147 849 848 155 156 930 929 
8 147 148 850 849 156 157 931 930 
8 148 149 851 850 157 158 932 931 
8 149 150 852 851 158 159 933 932 
8 150 151 853 852 159 160 934 933 
8 151 20 224 853 160 21 233 934 
8 394 845 854 393 403 926 935 402 
8 845 846 855 854 926 927 936 935 
8 846 847 856 855 927 928 937 936 
8 847 848 857 856 928 929 938 937 
8 848 849 858 857 929 930 939 938 
8 849 850 859 858 930 931 940 939 
8 850 851 860 859 931 932 941 940 
8 851 852 861 860 932 933 942 941 
8 852 853 862 861 933 934 943 942 
8 853 224 225 862 934 233 234 943 
8 393 854 863 392 402 935 944 401 
8 854 855 864 863 935 936 945 944 
8 855 856 865 864 936 937 946 945 
8 856 857 866 865 937 938 947 946 
8 857 858 867 866 938 939 948 947 
8 858 859 868 867 939 940 949 948 
8 859 860 869 868 940 941 950 949 
8 860 861 870 869 941 942 951 950 
8 861 862 871 870 942 943 952 951 
8 862 225 226 871 943 234 235 952 
8 392 863 872 391 401 944 953 400 
8 863 864 873 872 944 945 954 953 
8 864 865 874 873 945 946 955 954 
8 865 866 875 874 946 947 956 955 
8 866 867 876 875 947 948 957 956 
8 867 868 877 876 948 949 958 957 
8 868 869 878 877 949 950 959 958 
8 869 870 879 878 950 951 960 959 
8 870 871 880 879 951 952 961 960 
8 871 226 227 880 952 235 236 961 
8 391 872 881 390 400 953 962 399 
8 872 873 882 881 953 954 963 962 
8 873 874 883 882 954 955 964 963 
8 874 875 884 883 955 956 965 964 
8 875 876 885 884 956 957 966 965 
8 876 877 886 885 957 958 967 966 
8 877 878 887 886 958 959 968 967 
8 878 879 888 887 959 960 969 968 
8 879 880 889 888 960 961 970 969 
8 880 227 228 889 961 236 237 970 
8 390 881 890 389 399 962 971 398 
8 881 882 891 890 962 963 972 971 
8 882 883 892 891 963 964 973 972 
8 883 884 893 892 964 965 974 973 
8 884 885 894 893 965 966 975 974 
8 885 886 895 894 966 967 976 975 
8 886 887 896 895 967 968 977 976 
8 887 888 897 896 968 969 978 977 
8 888 889 898 897 969 970 979 978 
8 889 228 229 898 970 237 238 979 
8 389 890 899 388 398 971 980 397 
8 890 891 900 899 971 972 981 980 
8 891 892 901 900 972 973 982 981 
8 892 893 902 901 973 974 983 982 
8 893 894 903 902 974 975 984 983 
8 894 895 904 903 975 976 985 984 
8 895 896 905 904 976 977 986 985 
8 896 897 906 905 977 978 987 986 
8 897 898 907 906 978 979 988 987 
8 898 229 230 907 979 238 239 988 
8 388 899 908 387 397 980 989 396 
8 899 900 909 908 980 981 990 989 
8 900 901 910 909 981 982 991 990 
8 901 902 911 910 982 983 992 991 
8 902 903 912 911 983 984 993 992 
8 903 904 913 912 984 985 994 993 
8 904 905 914 913 985 986 995 994 
8 905 906 915 914 986 987 996 995 
8 906 907 916 915 987 988 997 996 
8 907 230 231 916 988 239 240 997 
8 387 908 917 386 396 989 998 395 
8 908 909 918 917 989 990 999 998 
8 909 910 919 918 990 991 1000 999 
8 910 911 920 919 991 992 1001 1000 
8 911 912 921 920 992 993 1002 1001 
8 912 913 922 921 993 994 1003 1002 
8 913 914 923 922 994 995 1004 1003 
8 914 915 924 923 995 996 1005 1004 
8 915 916 925 924 996 997 1006 1005 
8 916 231 232 925 997 240 241 1006 
8 386 917 313 83 395 998 322 84 
8 917 918 312 313 998 999 321 322 
8 918 919 311 312 999 1000 320 321 
8 919 920 310 311 1000 1001 319 320 
8 920 921 309 310 1001 1002 318 319 
8 921 922 308 309 1002 1003 317 318 
8 922 923 307 308 1003 1004 316 317 
8 923 924 306 307 1004 1005 315 316 
8 924 925 305 306 1005 1006 314 315 
8 925 232 56 305 1006 241 57 314 
8 39 152 926 403 38 161 1007 412 
8 152 153 927 926 161 162 1008 1007 
8 153 154 928 927 162 163 1009 1008 
8 154 155 929 928 163 164 1010 1009 
8 155 156 930 929 164 165 1011 1010 
8 156 157 931 930 165 166 1012 1011 
8 157 158 932 931 166 167 1013 1012 
8 158 159 933 932 167 168 1014 1013 
8 159 160 934 933 168 169 1015 1014 
8 160 21 233 934 169 22 242 1015 
8 403 926 935 402 412 1007 1016 411 
8 926 927 936 935 1007 1008 1017 1016 
8 927 928 937 936 1008 1009 1018 1017 
8 928 929 938 937 1009 1010 1019 1018 
8 929 930 939 938 1010 1011 1020 1019 
8 930 931 940 939 1011 1012 1021 1020 
8 931 932 941 940 1012 1013 1022 1021 
8 932 933 942 941 1013 1014 1023 1022 
8 933 934 943 942 1014 1015 1024 1023 
8 934 233 234 943 1015 242 243 1024 
8 402 935 944 401 411 1016 1025 410 
8 935 936 945 944 1016 1017 1026 1025 
8 936 937 946 945 1017 1018 1027 1026 
8 937 938 947 946 1018 1019 1028 1027 
8 938 939 948 947 1019 1020 1029 1028 
8 939 940 949 948 1020 1021 1030 1029 
8 940 941 950 949 1021 1022 1031 1030 
8 941 942 951 950 1022 1023 1032 1031 
8 942 943 952 951 1023 1024 1033 1032 
8 943 234 235 952 1024 243 244 1033 
8 401 944 953 400 410 1025 1034 409 
8 944 945 954 953 1025 1026 1035 1034 
8 945 946 955 954 1026 1027 1036 1035 
8 946 947 956 955 1027 1028 1037 1036 
8 947 948 957 956 1028 1029 1038 1037 
8 948 949 958 957 1029 1030 1039 1038 
8 949 950 959 958 1030 1031 1040 1039 
8 950 951 960 959 1031 1032 1041 1040 
8 951 952 961 960 1032 1033 1042 1041 
8 952 235 236 961 1033 244 245 1042 
8 400 953 962 399 409 1034 1043 408 
8 953 954 963 962 1034 1035 1044 1043 
8 954 955 964 963 1035 1036 1045 1044 
8 955 956 965 964 1036 1037 1046 1045 
8 956 957 966 965 1037 1038 1047 1046 
8 957 958 967 966 1038 1039 1048 1047 
8 958 959 968 967 1039 1040 1049 1048 
8 959 960 969 968 1040 1041 1050 1049 
8 960 961 970 969 1041 1042 1051 1050 
8 961 236 237 970 1042 245 246 1051 
8 399 962 971 398 408 1043 1052 407 
8 962 963 972 971 1043 1044 1053 1052 
8 963 964 973 972 1044 1045 1054 1053 
8 964 965 974 973 1045 1046 1055 1054 
8 965 966 975 974 1046 1047 1056 1055 
8 966 967 976 975 1047 1048 1057 1056 
8 967 968 977 976 1048 1049 1058 1057 
8 968 969 978 977 1049 1050 1059 1058 
8 969 970 979 978 1050 1051 1060 1059 
8 970 237 238 979 1051 246 247 1060 
8 398 971 980 397 407 1052 1061 406 
8 971 972 981 980 1052 1053 1062 1061 
8 972 973 982 981 1053 1054 1063 1062 
8 973 974 983 982 1054 1055 1064 1063 
8 974 975 984 983 1055 1056 1065 1064 
8 975 976 985 984 1056 1057 1066 1065 
8 976 977 986 985 1057 1058 1067 1066 
8 977 978 987 986 1058 1059 1068 1067 
8 978 979 988 987 1059 1060 1069 1068 
8 979 238 239 988 1060 247 248 1069 
8 397 980 989 396 406 1061 1070 405 
8 980 981 990 989 1061 1062 1071 1070 
8 981 982 991 990 1062 1063 1072 1071 
8 982 983 992 991 1063 1064 1073 1072 
8 983 984 993 992 1064 1065 1074 1073 
8 984 985 994 993 1065 1066 1075 1074 
8 985 986 995 994 1066 1067 1076 1075 
8 986 987 996 995 1067 1068 1077 1076 
8 987 988 997 996 1068 1069 1078 1077 
8 988 239 240 997 1069 248 249 1078 
8 396 989 998 395 405 1070 1079 404 
8 989 990 999 998 1070 1071 1080 1079 
8 990 991 1000 999 1071 1072 1081 1080 
8 991 992 1001 1000 1072 1073 1082 1081 
8 992 993 1002 1001 1073 1074 1083 1082 
8 993 994 1003 1002 1074 1075 1084 1083 
8 994 995 1004 1003 1075 1076 1085 1084 
8 995 996 1005 1004 1076 1077 1086 1085 
8 996 997 1006 1005 1077 1078 1087 1086 
8 997 240 241 1006 1078 249 250 1087 
8 395 998 322 84 404 1079 331 85 
8 998 999 321 322 1079 1080 330 331 
8 999 1000 320 321 1080 1081 329 330 
8 1000 1001 319 320 1081 1082 328 329 
8 1001 1002 318 319 1082 1083 327 328 
8 1002 1003 317 318 1083 1084 326 327 
8 1003 1004 316 317 1084 1085 325 326 
8 1004 1005 315 316 1085 1086 324 325 
8 1005 1006 314 315 1086 1087 323 324 
8 1006 241 57 314 1087 250 58 323 
8 38 161 1007 412 37 170 1088 421 
8 161 162 1008 1007 170 171 1089 1088 
8 162 163 1009 1008 171 172 1090 1089 
8 163 164 1010 1009 172 173 1091 1090 
8 164 165 1011 1010 173 174 1092 1091 
8 165 166 1012 1011 174 175 1093 1092 
8 166 167 1013 1012 175 176 1094 1093 
8 167 168 1014 1013 176 177 1095 1094 
8 168 169 1015 1014 177 178 1096 1095 
8 169 22 242 1015 178 23 251 1096 
8 412 1007 1016 411 421 1088 1097 420 
8 1007 1008 1017 1016 1088 1089 1098 1097 
8 1008 1009 1018 1017 1089 1090 1099 1098 
8 1009 1010 1019 1018 1090 1091 1100 1099 
8 1010 1011 1020 1019 1091 1092 1101 1100 
8 1011 1012 1021 1020 1092 1093 1102 1101 
8 1012 1013 1022 1021 1093 1094 1103 1102 
8 1013 1014 1023 1022 1094 1095 1104 1103 
8 1014 1015 1024 1023 1095 1096 1105 1104 
8 1015 242 243 1024 1096 251 252 1105 
8 411 1016 1025 410 420 1097 1106 419 
8 1016 1017 1026 1025 1097 1098 1107 1106 
8 1017 1018 1027 1026 1098 1099 1108 1107 
8 1018 1019 1028 1027 1099 1100 1109 1108 
8 1019 1020 1029 1028 1100 1101 1110 1109 
8 1020 1021 1030 1029 1101 1102 1111 1110 
8 1021 1022 1031 1030 1102 1103 1112 1111 
8 1022 1023 1032 1031 1103 1104 1113 1112 
8 1023 1024 1033 1032 1104 1105 1114 1113 
8 1024 243 244 1033 1105 252 253 1114 
8 410 1025 1034 409 419 1106 1115 418 
8 1025 1026 1035 1034 1106 1107 1116 1115 
8 1026 1027 1036 1035 1107 1108 1117 1116 
8 1027 1028 1037 1036 1108 1109 1118 1117 
8 1028 1029 1038 1037 1109 1110 1119 1118 
8 1029 1030 1039 1038 1110 1111 1120 1119 
8 1030 1031 1040 1039 1111 1112 1121 1120 
8 1031 1032 1041 1040 1112 1113 1122 1121 
8 1032 1033 1042 1041 1113 1114 1123 1122 
8 1033 244 245 1042 1114 253 254 1123 
8 409 1034 1043 408 418 1115 1124 417 
8 1034 1035 1044 1043 1115 1116 1125 1124 
8 1035 1036 1045 1044 1116 1117 1126 1125 
8 1036 1037 1046 1045 1117 1118 1127 1126 
8 1037 1038 1047 1046 1118 1119 1128 1127 
8 1038 1039 1048 1047 1119 1120 1129 1128 
8 1039 1040 1049 1048 1120 1121 1130 1129 
8 1040 1041 1050 1049 1121 1122 1131 1130 
8 1041 1042 1051 1050 1122 1123 1132 1131 
8 1042 245 246 1051 1123 254 255 1132 
8 408 1043 1052 407 417 1124 1133 416 
8 1043 1044 1053 1052 1124 1125 1134 1133 
8 1044 1045 1054 1053 1125 1126 1135 1134 
8 1045 1046 1055 1054 1126 1127 1136 1135 
8 1046 1047 1056 1055 1127 1128 1137 1136 
8 1047 1048 1057 1056 1128 1129 1138 1137 
8 1048 1049 1058 1057 1129 1130 1139 1138 
8 1049 1050 1059 1058 1130 1131 1140 1139 
8 1050 1051 1060 1059 1131 1132 1141 1140 
8 1051 246 247 1060 1132 255 256 1141 
8 407 1052 1061 406 416 1133 1142 415 
8 1052 1053 1062 1061 1133 1134 1143 1142 
8 1053 1054 1063 1062 1134 1135 1144 1143 
8 1054 1055 1064 1063 1135 1136 1145 1144 
8 1055 1056 1065 1064 1136 1137 1146 1145 
8 1056 1057 1066 1065 1137 1138 1147 1146 
8 1057 1058 1067 1066 1138 1139 1148 1147 
8 1058 1059 1068 1067 1139 1140 1149 1148 
8 1059 1060 1069 1068 1140 1141 1150 1149 
8 1060 247 248 1069 1141 256 257 1150 
8 406 1061 1070 405 415 1142 1151 414 
8 1061 1062 1071 1070 1142 1143 1152 1151 
8 1062 1063 1072 1071 1143 1144 1153 1152 
8 1063 1064 1073 1072 1144 1145 1154 1153 
8 1064 1065 1074 1073 1145 1146 1155 1154 
8 1065 1066 1075 1074 1146 1147 1156 1155 
8 1066 1067 1076 1075 1147 1148 1157 1156 
8 1067 1068 1077 1076 1148 1149 1158 1157 
8 1068 1069 1078 1077 1149 1150 1159 1158 
8 1069 248 249 1078 1150 257 258 1159 
8 405 1070 1079 404 414 1151 1160 413 
8 1070 1071 1080 1079 1151 1152 1161 1160 
8 1071 1072 1081 1080 1152 1153 1162 1161 
8 1072 1073 1082 1081 1153 1154 1163 1162 
8 1073 1074 1083 1082 1154 1155 1164 1163 
8 1074 1075 1084 1083 1155 1156 1165 1164 
8 1075 1076 1085 1084 1156 1157 1166 1165 
8 1076 1077 1086 1085 1157 1158 1167 1166 
8 1077 1078 1087 1086 1158 1159 1168 1167 
8 1078 249 250 1087 1159 258 259 1168 
8 404 1079 331 85 413 1160 340 86 
8 1079 1080 330 331 1160 1161 339 340 
8 1080 1081 329 330 1161 1162 338 339 
8 1081 1082 328 329 1162 1163 337 338 
8 1082 1083 327 328 1163 1164 336 337 
8 1083 1084 326 327 1164 1165 335 336 
8 1084 1085 325 326 1165 1166 334 335 
8 1085 1086 324 325 1166 1167 333 334 
8 1086 1087 323 324 1167 1168 332 333 
8 1087 250 58 323 1168 259 59 332 
8 37 170 1088 421 36 179 1169 430 
8 170 171 1089 1088 179 180 1170 1169 
8 171 172 1090 1089 180 181 1171 1170 
8 172 173 1091 1090 181 182 1172 1171 
8 173 174 1092 1091 182 183 1173 1172 
8 174 175 1093 1092 183 184 1174 1173 
8 175 176 1094 1093 184 185 1175 1174 
8 176 177 1095 1094 185 186 1176 1175 
8 177 178 1096 1095 186 187 1177 1176 
8 178 23 251 1096 187 24 260 1177 
8 421 1088 1097 420 430 1169 1178 429 
8 1088 1089 1098 1097 1169 1170 1179 1178 
8 1089 1090 1099 1098 1170 1171 1180 1179 
8 1090 1091 1100 1099 1171 1172 1181 1180 
8 1091 1092 1101 1100 1172 1173 1182 1181 
8 1092 1093 1102 1101 1173 1174 1183 1182 
8 1093 1094 1103 1102 1174 1175 1184 1183 
8 1094 1095 1104 1103 1175 1176 1185 1184 
8 1095 1096 1105 1104 1176 1177 1186 1185 
8 1096 251 252 1105 1177 260 261 1186 
8 420 1097 1106 419 429 1178 1187 428 
8 1097 1098 1107 1106 1178 1179 1188 1187 
8 1098 1099 1108 1107 1179 1180 1189 1188 
8 1099 1100 1109 1108 1180 1181 1190 1189 
8 1100 1101 1110 1109 1181 1182 1191 1190 
8 1101 1102 1111 1110 1182 1183 1192 1191 
8 1102 1103 1112 1111 1183 1184 1193 1192 
8 1103 1104 1113 1112 1184 1185 1194 1193 
8 1104 1105 1114 1113 1185 1186 1195 1194 
8 1105 252 253 1114 1186 261 262 1195 
8 419 1106 1115 418 428 1187 1196 427 
8 1106 1107 1116 1115 1187 1188 1197 1196 
8 1107 1108 1117 1116 1188 1189 1198 1197 
8 1108 1109 1118 1117 1189 1190 1199 1198 
8 1109 1110 1119 1118 1190 1191 1200 1199 
8 1110 1111 1120 1119 1191 1192 1201 1200 
8 1111 1112 1121 1120 1192 1193 1202 1201 
8 1112 1113 1122 1121 1193 1194 1203 1202 
8 1113 1114 1123 1122 1194 1195 1204 1203 
8 1114 253 254 1123 1195 262 263 1204 
8 418 1115 1124 417 427 1196 1205 426 
8 1115 1116 1125 1124 1196 1197 1206 1205 
8 1116 1117 1126 1125 1197 1198 1207 1206 
8 1117 1118 1127 1126 1198 1199 1208 1207 
8 1118 1119 1128 1127 1199 1200 1209 1208 
8 1119 1120 1129 1128 1200 1201 1210 1209 
8 1120 1121 1130 1129 1201 1202 1211 1210 
8 1121 1122 1131 1130 1202 1203 1212 1211 
8 1122 1123 1132 1131 1203 1204 1213 1212 
8 1123 254 255 1132 1204 263 264 1213 
8 417 1124 1133 416 426 1205 1214 425 
8 1124 1125 1134 1133 1205 1206 1215 1214 
8 1125 1126 1135 1134 1206 1207 1216 1215 
8 1126 1127 1136 1135 1207 1208 1217 1216 
8 1127 1128 1137 1136 1208 1209 1218 1217 
8 1128 1129 1138 1137 1209 1210 1219 1218 
8 1129 1130 1139 1138 1210 1211 1220 1219 
8 1130 1131 1140 1139 1211 1212 1221 1220 
8 1131 1132 1141 1140 1212 1213 1222 1221 
8 1132 255 256 1141 1213 264 265 1222 
8 416 1133 1142 415 425 1214 1223 424 
8 1133 1134 1143 1142 1214 1215 1224 1223 
8 1134 1135 1144 1143 1215 1216 1225 1224 
8 1135 1136 1145 1144 1216 1217 1226 1225 
8 1136 1137 1146 1145 1217 1218 1227 1226 
8 1137 1138 1147 1146 1218 1219 1228 1227 
8 1138 1139 1148 1147 1219 1220 1229 1228 
8 1139 1140 1149 1148 1220 1221 1230 1229 
8 1140 1141 1150 1149 1221 1222 1231 1230 
8 1141 256 257 1150 1222 265 266 1231 
8 415 1142 1151 414 424 1223 1232 423 
8 1142 1143 1152 1151 1223 1224 1233 1232 
8 1143 1144 1153 1152 1224 1225 1234 1233 
8 1144 1145 1154 1153 1225 1226 1235 1234 
8 1145 1146 1155 1154 1226 1227 1236 1235 
8 1146 1147 1156 1155 1227 1228 1237 1236 
8 1147 1148 1157 1156 1228 1229 1238 1237 
8 1148 1149 1158 1157 1229 1230 1239 1238 
8 1149 1150 1159 1158 1230 1231 1240 1239 
8 1150 257 258 1159 1231 266 267 1240 
8 414 1151 1160 413 423 1232 1241 422 
8 1151 1152 1161 1160 1232 1233 1242 1241 
8 1152 1153 1162 1161 1233 1234 1243 1242 
8 1153 1154 1163 1162 1234 1235 1244 1243 
8 1154 1155 1164 1163 1235 1236 1245 1244 
8 1155 1156 1165 1164 1236 1237 1246 1245 
8 1156 1157 1166 1165 1237 1238 1247 1246 
8 1157 1158 1167 1166 1238 1239 1248 1247 
8 1158 1159 1168 1167 1239 1240 1249 1248 
8 1159 258 259 1168 1240 267 268 1249 
8 413 1160 340 86 422 1241 349 87 
8 1160 1161 339 340 1241 1242 348 349 
8 1161 1162 338 339 1242 1243 347 348 
8 1162 1163 337 338 1243 1244 346 347 
8 1163 1164 336 337 1244 1245 345 346 
8 1164 1165 335 336 1245 1246 344 345 
8 1165 1166 334 335 1246 1247 343 344 
8 1166 1167 333 334 1247 1248 342 343 
8 1167 1168 332 333 1248 1249 341 342 
8 1168 259 59 332 1249 268 60 341 
8 36 179 1169 430 35 188 1250 439 
8 179 180 1170 1169 188 189 1251 1250 
8 180 181 1171 1170 189 190 1252 1251 
8 181 182 1172 1171 190 191 1253 1252 
8 182 183 1173 1172 191 192 1254 1253 
8 183 184 1174 1173 192 193 1255 1254 
8 184 185 1175 1174 193 194 1256 1255 
8 185 186 1176 1175 194 195 1257 1256 
8 186 187 1177 1176 195 196 1258 1257 
8 187 24 260 1177 196 25 269 1258 
8 430 1169 1178 429 439 1250 1259 438 
8 1169 1170 1179 1178 1250 1251 1260 1259 
8 1170 1171 1180 1179 1251 1252 1261 1260 
8 1171 1172 1181 1180 1252 1253 1262 1261 
8 1172 1173 1182 1181 1253 1254 1263 1262 
8 1173 1174 1183 1182 1254 1255 1264 1263 
8 1174 1175 1184 1183 1255 1256 1265 1264 
8 1175 1176 1185 1184 1256 1257 1266 1265 
8 1176 1177 1186 1185 1257 1258 1267 1266 
8 1177 260 261 1186 1258 269 270 1267 
8 429 1178 1187 428 438 1259 1268 437 
8 1178 1179 1188 1187 1259 1260 1269 1268 
8 1179 1180 1189 1188 1260 1261 1270 1269 
8 1180 1181 1190 1189 1261 1262 1271 1270 
8 1181 1182 1191 1190 1262 1263 1272 1271 
8 1182 1183 1192 1191 1263 1264 1273 1272 
8 1183 1184 1193 1192 1264 1265 1274 1273 
8 1184 1185 1194 1193 1265 1266 1275 1274 
8 1185 1186 1195 1194 1266 1267 1276 1275 
8 1186 261 262 1195 1267 270 271 1276 
8 428 1187 1196 427 437 1268 1277 436 
8 1187 1188 1197 1196 1268 1269 1278 1277 
8 1188 1189 1198 1197 1269 1270 1279 1278 
8 1189 1190 1199 1198 1270 1271 1280 1279 
8 1190 1191 1200 1199 1271 1272 1281 1280 
8 1191 1192 1201 1200 1272 1273 1282 1281 
8 1192 1193 1202 1201 1273 1274 1283 1282 
8 1193 1194 1203 1202 1274 1275 1284 1283 
8 1194 1195 1204 1203 1275 1276 1285 1284 
8 1195 262 263 1204 1276 271 272 1285 
8 427 1196 1205 426 436 1277 1286 435 
8 1196 1197 1206 1205 1277 1278 1287 1286 
8 1197 1198 1207 1206 1278 1279 1288 1287 
8 1198 1199 1208 1207 1279 1280 1289 1288 
8 1199 1200 1209 1208 1280 1281 1290 1289 
8 1200 1201 1210 1209 1281 1282 1291 1290 
8 1201 1202 1211 1210 1282 1283 1292 1291 
8 1202 1203 1212 1211 1283 1284 1293 1292 
8 1203 1204 1213 1212 1284 1285 1294 1293 
8 1204 263 264 1213 1285 272 273 1294 
8 426 1205 1214 425 435 1286 1295 434 
8 1205 1206 1215 1214 1286 1287 1296 1295 
8 1206 1207 1216 1215 1287 1288 1297 1296 
8 1207 1208 1217 1216 1288 1289 1298 1297 
8 1208 1209 1218 1217 1289 1290 1299 1298 
8 1209 1210 1219 1218 1290 1291 1300 1299 
8 1210 1211 1220 1219 1291 1292 1301 1300 
8 1211 1212 1221 1220 1292 1293 1302 1301 
8 1212 1213 1222 1221 1293 1294 1303 1302 
8 1213 264 265 1222 1294 273 274 1303 
8 425 1214 1223 424 434 1295 1304 433 
8 1214 1215 1224 1223 1295 1296 1305 1304 
8 1215 1216 1225 1224 1296 1297 1306 1305 
8 1216 1217 1226 1225 1297 1298 1307 1306 
8 1217 1218 1227 1226 1298 1299 1308 1307 
8 1218 1219 1228 1227 1299 1300 1309 1308 
8 1219 1220 1229 1228 1300 1301 1310 1309 
8 1220 1221 1230 1229 1301 1302 1311 1310 
8 1221 1222 1231 1230 1302 1303 1312 1311 
8 1222 265 266 1231 1303 274 275 1312 
8 424 1223 1232 423 433 1304 1313 432 
8 1223 1224 1233 1232 1304 1305 1314 1313 
8 1224 1225 1234 1233 1305 1306 1315 1314 
8 1225 1226 1235 1234 1306 1307 1316 1315 
8 1226 1227 1236 1235 1307 1308 1317 1316 
8 1227 1228 1237 1236 1308 1309 1318 1317 
8 1228 1229 1238 1237 1309 1310 1319 1318 
8 1229 1230 1239 1238 1310 1311 1320 1319 
8 1230 1231 1240 1239 1311 1312 1321 1320 
8 1231 266 267 1240 1312 275 276 1321 
8 423 1232 1241 422 432 1313 1322 431 
8 1232 1233 1242 1241 1313 1314 1323 1322 
8 1233 1234 1243 1242 1314 1315 1324 1323 
8 1234 1235 1244 1243 1315 1316 1325 1324 
8 1235 1236 1245 1244 1316 1317 1326 1325 
8 1236 1237 1246 1245 1317 1318 1327 1326 
8 1237 1238 1247 1246 1318 1319 1328 1327 
8 1238 1239 1248 1247 1319 1320 1329 1328 
8 1239 1240 1249 1248 1320 1321 1330 1329 
8 1240 267 268 1249 1321 276 277 1330 
8 422 1241 349 87 431 1322 358 88 
8 1241 1242 348 349 1322 1323 357 358 
8 1242 1243 347 348 1323 1324 356 357 
8 1243 1244 346 347 1324 1325 355 356 
8 1244 1245 345 346 1325 1326 354 355 
8 1245 1246 344 345 1326 1327 353 354 
8 1246 1247 343 344 1327 1328 352 353 
8 1247 1248 342 343 1328 1329 351 352 
8 1248 1249 341 342 1329 1330 350 351 
8 1249 268 60 341 1330 277 61 350 
8 35 188 1250 439 4 34 521 107 
8 188 189 1251 1250 34 33 522 521 
8 189 190 1252 1251 33 32 523 522 
8 190 191 1253 1252 32 31 524 523 
8 191 192 1254 1253 31 30 525 524 
8 192 193 1255 1254 30 29 526 525 
8 193 194 1256 1255 29 28 527 526 
8 194 195 1257 1256 28 27 528 527 
8 195 196 1258 1257 27 26 529 528 
8 196 25 269 1258 26 5 70 529 
8 439 1250 1259 438 107 521 530 108 
8 1250 1251 1260 1259 521 522 531 530 
8 1251 1252 1261 1260 522 523 532 531 
8 1252 1253 1262 1261 523 524 533 532 
8 1253 1254 1263 1262 524 525 534 533 
8 1254 1255 1264 1263 525 526 535 534 
8 1255 1256 1265 1264 526 527 536 535 
8 1256 1257 1266 1265 527 528 537 536 
8 1257 1258 1267 1266 528 529 538 537 
8 1258 269 270 1267 529 70 69 538 
8 438 1259 1268 437 108 530 539 109 
8 1259 1260 1269 1268 530 531 540 539 
8 1260 1261 1270 1269 531 532 541 540 
8 1261 1262 1271 1270 532 533 542 541 
8 1262 1263 1272 1271 533 534 543 542 
8 1263 1264 1273 1272 534 535 544 543 
8 1264 1265 1274 1273 535 536 545 544 
8 1265 1266 1275 1274 536 537 546 545 
8 1266 1267 1276 1275 537 538 547 546 
8 1267 270 271 1276 538 69 68 547 
8 437 1268 1277 436 109 539 548 110 
8 1268 1269 1278 1277 539 540 549 548 
8 1269 1270 1279 1278 540 541 550 549 
8 1270 1271 1280 1279 541 542 551 550 
8 1271 1272 1281 1280 542 543 552 551 
8 1272 1273 1282 1281 543 544 553 552 
8 1273 1274 1283 1282 544 545 554 553 
8 1274 1275 1284 1283 545 546 555 554 
8 1275 1276 1285 1284 546 547 556 555 
8 1276 271 272 1285 547 68 67 556 
8 436 1277 1286 435 110 548 557 111 
8 1277 1278 1287 1286 548 549 558 557 
8 1278 1279 1288 1287 549 550 559 558 
8 1279 1280 1289 1288 550 551 560 559 
8 1280 1281 1290 1289 551 552 561 560 
8 1281 1282 1291 1290 552 553 562 561 
8 1282 1283 1292 1291 553 554 563 562 
8 1283 1284 1293 1292 554 555 564 563 
8 1284 1285 1294 1293 555 556 565 564 
8 1285 272 273 1294 556 67 66 565 
8 435 1286 1295 434 111 557 566 112 
8 1286 1287 1296 1295 557 558 567 566 
8 1287 1288 1297 1296 558 559 568 567 
8 1288 1289 1298 1297 559 560 569 568 
8 1289 1290 1299 1298 560 561 570 569 
8 1290 1291 1300 1299 561 562 571 570 
8 1291 1292 1301 1300 562 563 572 571 
8 1292 1293 1302 1301 563 564 573 572 
8 1293 1294 1303 1302 564 565 574 573 
8 1294 273 274 1303 565 66 65 574 
8 434 1295 1304 433 112 566 575 113 
8 1295 1296 1305 1304 566 567 576 575 
8 1296 1297 1306 1305 567 568 577 576 
8 1297 1298 1307 1306 568 569 578 577 
8 1298 1299 1308 1307 569 570 579 578 
8 1299 1300 1309 1308 570 571 580 579 
8 1300 1301 1310 1309 571 572 581 580 
8 1301 1302 1311 1310 572 573 582 581 
8 1302 1303 1312 1311 573 574 583 582 
8 1303 274 275 1312 574 65 64 583 
8 433 1304 1313 432 113 575 584 114 
8 1304 1305 1314 1313 575 576 585 584 
8 1305 1306 1315 1314 576 577 586 585 
8 1306 1307 1316 1315 577 578 587 586 
8 1307 1308 1317 1316 578 579 588 587 
8 1308 1309 1318 1317 579 580 589 588 
8 1309 1310 1319 1318 580 581 590 589 
8 1310 1311 1320 1319 581 582 591 590 
8 1311 1312 1321 1320 582 583 592 591 
8 1312 275 276 1321 583 64 63 592 
8 432 1313 1322 431 114 584 593 115 
8 1313 1314 1323 1322 584 585 594 593 
8 1314 1315 1324 1323 585 586 595 594 
8 1315 1316 1325 1324 586 587 596 595 
8 1316 1317 1326 1325 587 588 597 596 
8 1317 1318 1327 1326 588 589 598 597 
8 1318 1319 1328 1327 589 590 599 598 
8 1319 1320 1329 1328 590 591 600 599 
8 1320 1321 1330 1329 591 592 601 600 
8 1321 276 277 1330 592 63 62 601 
8 431 1322 358 88 115 593 89 7 
8 1322 1323 357 358 593 594 90 89 
8 1323 1324 356 357 594 595 91 90 
8 1324 1325 355 356 595 596 92 91 
8 1325 1326 354 355 596 597 93 92 
8 1326 1327 353 354 597 598 94 93 
8 1327 1328 352 353 598 599 95 94 
8 1328 1329 351 352 599 600 96 95 
8 1329 1330 350 351 600 601 97 96 
8 1330 277 61 350 601 62 6 97 

CELL_TYPES 1000
12
12
12
12
12
12
12
12
12
12
12
12
12
12
12
12
12
12
12
12
12
12
12
12
12
12
12
12
12
12
12
12
12
12
12
12
12
12
12
12
12
12
12
12
12
12
12
12
12
12
12
12
12
12
12
12
12
12
12
12
12
12
12
12
12
12
12
12
12
12
12
12
12
12
12
12
12
12
12
12
12
12
12
12
12
12
12
12
12
12
12
12
12
12
12
12
12
12
12
12
12
12
12
12
12
12
12
12
12
12
12
12
12
12
12
12
12
12
12
12
12
12
12
12
12
12
12
12
12
12
12
12
12
12
12
12
12
12
12
12
12
12
12
12
12
12
12
12
12
12
12
12
12
12
12
12
12
12
12
12
12
12
12
12
12
12
12
12
12
12
12
12
12
12
12
12
12
12
12
12
12
12
12
12
12
12
12
12
12
12
12
12
12
12
12
12
12
12
12
12
12
12
12
12
12
12
12
12
12
12
12
12
12
12
12
12
12
12
12
12
12
12
12
12
12
12
12
12
12
12
12
12
12
12
12
12
12
12
12
12
12
12
12
12
12
12
12
12
12
12
12
12
12
12
12
12
12
12
12
12
12
12
12
12
12
12
12
12
12
12
12
12
12
12
12
12
12
12
12
12
12
12
12
12
12
12
12
12
12
12
12
12
12
12
12
12
12
12
12
12
12
12
12
12
12
12
12
12
12
12
12
12
12
12
12
12
12
12
12
12
12
12
12
12
12
12
12
12
12
12
12
12
12
12
12
12
12
12
12
12
12
12
12
12
12
12
12
12
12
12
12
12
12
12
12
12
12
12
12
12
12
12
12
12
12
12
12
12
12
12
12
12
12
12
12
12
12
12
12
12
12
12
12
12
12
12
12
12
12
12
12
12
12
12
12
12
12
12
12
12
12
12
12
12
12
12
12
12
12
12
12
12
12
12
12
12
12
12
12
12
12
12
12
12
12
12
12
12
12
12
12
12
12
12
12
12
12
12
12
12
12
12
12
12
12
12
12
12
12
12
12
12
12
12
12
12
12
12
12
12
12
12
12
12
12
12
12
12
12
12
12
12
12
12
12
12
12
12
12
12
12
12
12
12
12
12
12
12
12
12
12
12
12
12
12
12
12
12
12
12
12
12
12
12
12
12
12
12
12
12
12
12
12
12
12
12
12
12
12
12
12
12
12
12
12
12
12
12
12
12
12
12
12
12
12
12
12
12
12
12
12
12
12
12
12
12
12
12
12
12
12
12
12
12
12
12
12
12
12
12
12
12
12
12
12
12
12
12
12
12
12
12
12
12
12
12
12
12
12
12
12
12
12
12
12
12
12
12
12
12
12
12
12
12
12
12
12
12
12
12
12
12
12
12
12
12
12
12
12
12
12
12
12
12
12
12
12
12
12
12
12
12
12
12
12
12
12
12
12
12
12
12
12
12
12
12
12
12
12
12
12
12
12
12
12
12
12
12
12
12
12
12
12
12
12
12
12
12
12
12
12
12
12
12
12
12
12
12
12
12
12
12
12
12
12
12
12
12
12
12
12
12
12
12
12
12
12
12
12
12
12
12
12
12
12
12
12
12
12
12
12
12
12
12
12
12
12
12
12
12
12
12
12
12
12
12
12
12
12
12
12
12
12
12
12
12
12
12
12
12
12
12
12
12
12
12
12
12
12
12
12
12
12
12
12
12
12
12
12
12
12
12
12
12
12
12
12
12
12
12
12
12
12
12
12
12
12
12
12
12
12
12
12
12
12
12
12
12
12
12
12
12
12
12
12
12
12
12
12
12
12
12
12
12
12
12
12
12
12
12
12
12
12
12
12
12
12
12
12
12
12
12
12
12
12
12
12
12
12
12
12
12
12
12
12
12
12
12
12
12
12
12
12
12
12
12
12
12
12
12
12
12
12
12
12
12
12
12
12
12
12
12
12
12
12
12
12
12
12
12
12
12
12
12
12
12
12
12
12
12
12
12
12
12
12
12
12
12
12
12
12
12
12
12
12
12
12
12
12
12
12
12
12
12
12
12
12
12
12
12
12
12
12
12
12
12
12
12
12
12
12
12
12
12
12
12
12
12
12
12
12
12
12
12
12
12
12
12
12
12
12
12
12
12
12
12
12
12
12
12
12
12
12
12
12
12
12
12
12
12
12
12
12
12
12
12
12
12
12
12
12
12
12
12
12
12
12
12
12
12
12
12
12
12
12
12
12
12
12
12
12
12
12
12
12
12
12
12
12
12
12
12
12
12
12
12
12
12
12
12

POINT_DATA 1331
VECTORS displacement float
0 0 0
0 0 0
0 0 0
0 0 0
4.13683e-05 4.13683e-05 -0.019334
-4.13683e-05 4.13683e-05 -0.019334
-4.13683e-05 -4.13683e-05 -0.019334
4.13683e-05 -4.13683e-05 -0.019334
0 0 0
0 0 0
0 0 0
0 0 0
0 0 0
0 0 0
0 0 0
0 0 0
0 0 0
0.00700132 -0.00700132 -0.00571319
0.00927381 -0.00927381 -0.0104601
0.0107636 -0.0107636 -0.0138615
0.0116038 -0.0116038 -0.0166428
0.0118743 -0.0118743 -0.0187532
0.0114896 -0.0114896 -0.0200254
0.010233 -0.010233 -0.0203892
0.00787331 -0.00787331 -0.0200415
0.00429434 -0.00429434 -0.0195216
0.000109637 0.000113639 -0.0232744
0.000106711 0.000342675 -0.0266668
-0.000116817 0.000413855 -0.0293155
-0.000130543 0.000650865 -0.0315047
2.05735e-17 0.000801745 -0.032444
0.000130543 0.000650865 -0.0315047
0.000116817 0.000413855 -0.0293155
-0.000106711 0.000342675 -0.0266668
-0.000109637 0.000113639 -0.0232744
-0.00429434 -0.00429434 -0.0195216
-0.00787331 -0.00787331 -0.0200415
-0.010233 -0.010233 -0.0203892
-0.0114896 -0.0114896 -0.0200254
-0.0118743 -0.0118743 -0.0187532
-0.0116038 -0.0116038 -0.0166428
-0.0107636 -0.0107636 -0.0138615
-0.00927381 -0.00927381 -0.0104601
-0.00700132 -0.00700132 -0.00571319
0 0 0
0 0 0
0 0 0
0 0 0
0 0 0
0 0 0
0 0 0
0 0 0
0 0 0
0.00700132 0.00700132 -0.00571319
0.00927381 0.00927381 -0.0104601
0.0107636 0.0107636 -0.0138615
0.0116038 0.0116038 -0.0166428
0.0118743 0.0118743 -0.0187532
0.0114896 0.0114896 -0.0200254
0.010233 0.010233 -0.0203892
0.00787331 0.00787331 -0.0200415
0.00429434 0.00429434 -0.0195216
-0.000113639 0.000109637 -0.0232744
-0.000342675 0.000106711 -0.0266668
-0.000413855 -0.000116817 -0.0293155
-0.000650865 -0.000130543 -0.0315047
-0.000801745 3.48411e-17 -0.032444
-0.000650865 0.000130543 -0.0315047
-0.000413855 0.000116817 -0.0293155
-0.000342675 -0.000106711 -0.0266668
-0.000113639 -0.000109637 -0.0232744
0 0 0
0 0 0
0 0 0
0 0 0
0 0 0
0 0 0
0 0 0
0 0 0
0 0 0
-0.00700132 0.00700132 -0.00571319
-0.00927381 0.00927381 -0.0104601
-0.0107636 0.0107636 -0.0138615
-0.0116038 0.0116038 -0.0166428
-0.0118743 0.0118743 -0.0187532
-0.0114896 0.0114896 -0.0200254
-0.010233 0.010233 -0.0203892
-0.00787331 0.00787331 -0.0200415
-0.00429434 0.00429434 -0.0195216
-0.000109637 -0.000113639 -0.0232744
-0.000106711 -0.000342675 -0.0266668
0.000116817 -0.000413855 -0.0293155
0.000130543 -0.000650865 -0.0315047
-6.27433e-17 -0.000801745 -0.032444
-0.000130543 -0.000650865 -0.0315047
-0.000116817 -0.000413855 -0.0293155
0.000106711 -0.000342675 -0.0266668
0.000109637 -0.000113639 -0.0232744
0 0 0
0 0 0
0 0 0
0 0 0
0 0 0
0 0 0
0 0 0
0 0 0
0 0 0
0.000113639 -0.000109637 -0.0232744
0.000342675 -0.000106711 -0.0266668
0.000413855 0.000116817 -0.0293155
0.000650865 0.000130543 -0.0315047
0.000801745 -1.08939e-17 -0.032444
0.000650865 -0.000130543 -0.0315047
0.000413855 -0.000116817 -0.0293155
0.000342675 0.000106711 -0.0266668
0.000113639 0.000109637 -0.0232744
-0.00469472 -0.00668739 -0.00418112
-0.00330106 -0.00706182 -0.00406612
-0.00219683 -0.007363 -0.00406474
-0.00111098 -0.00757266 -0.00412658
2.43597e-17 -0.00764802 -0.00415322
0.00111098 -0.00757266 -0.00412658
0.00219683 -0.007363 -0.00406474
0.00330106 -0.00706182 -0.00406612
0.00469472 -0.00668739 -0.00418112
-0.00756482 -0.00956185 -0.00896106
-0.00573451 -0.00980559 -0.00852905
-0.003912 -0.0102472 -0.00857502
-0.00199661 -0.0105691 -0.00871693
4.14081e-17 -0.0106888 -0.00878431
0.00199661 -0.0105691 -0.00871693
0.003912 -0.0102472 -0.00857502
0.00573451 -0.00980559 -0.00852905
0.00756482 -0.00956185 -0.00896106
-0.00928017 -0.0110464 -0.0129528
-0.00742695 -0.0115009 -0.0127724
-0.00520871 -0.0120462 -0.0130365
-0.00269353 -0.0124874 -0.0133645
3.15223e-17 -0.0126514 -0.013502
0.00269353 -0.0124874 -0.0133645
0.00520871 -0.0120462 -0.0130365
0.00742695 -0.0115009 -0.0127724
0.00928017 -0.0110464 -0.0129528
-0.0103494 -0.0118758 -0.0163891
-0.00857212 -0.012514 -0.0167926
-0.00616721 -0.0133008 -0.0175396
-0.0032322 -0.0139154 -0.0181944
3.47338e-17 -0.0141457 -0.018448
0.0032322 -0.0139154 -0.0181944
0.00616721 -0.0133008 -0.0175396
0.00857212 -0.012514 -0.0167926
0.0103494 -0.0118758 -0.0163891
-0.0109188 -0.0121988 -0.0192291
-0.00930914 -0.013102 -0.0203993
-0.00684064 -0.0142587 -0.0218239
-0.00362692 -0.0151485 -0.0229233
2.93109e-17 -0.0154762 -0.023328
0.00362692 -0.0151485 -0.0229233
0.00684064 -0.0142587 -0.0218239
0.00930914 -0.013102 -0.0203993
0.0109188 -0.0121988 -0.0192291
-0.0109099 -0.0119342 -0.0213262
-0.00955757 -0.0132067 -0.0233296
-0.00715571 -0.0148825 -0.0254995
-0.00382897 -0.0161282 -0.0270685
-4.57813e-17 -0.0165778 -0.027625
0.00382897 -0.0161282 -0.0270685
0.00715571 -0.0148825 -0.0254995
0.00955757 -0.0132067 -0.0233296
0.0109099 -0.0119342 -0.0213262
-0.0100477 -0.0108324 -0.0225775
-0.00903335 -0.0124902 -0.0253057
-0.00688158 -0.0147352 -0.0280692
-0.0037093 -0.0162889 -0.0299951
-2.68831e-17 -0.0168438 -0.0306669
0.0037093 -0.0162889 -0.0299951
0.00688158 -0.0147352 -0.0280692
0.00903335 -0.0124902 -0.0253057
0.0100477 -0.0108324 -0.0225775
-0.00799732 -0.00853119 -0.0230557
-0.00739183 -0.0103366 -0.0261823
-0.00569384 -0.0127646 -0.0291122
-0.00304235 -0.0143404 -0.0312031
4.58898e-17 -0.0148447 -0.0319355
0.00304235 -0.0143404 -0.0312031
0.00569384 -0.0127646 -0.0291122
0.00739183 -0.0103366 -0.0261823
0.00799732 -0.00853119 -0.0230557
-0.004493 -0.00480384 -0.023135
-0.00420624 -0.00605628 -0.026333
-0.00319032 -0.0077741 -0.0291164
-0.00167111 -0.0087151 -0.0312165
7.84154e-17 -0.00895856 -0.0319952
0.00167111 -0.0087151 -0.0312165
0.00319032 -0.0077741 -0.0291164
0.00420624 -0.00605628 -0.026333
0.004493 -0.00480384 -0.023135
0.00668739 -0.00469472 -0.00418112
0.00706182 -0.00330106 -0.00406612
0.007363 -0.00219683 -0.00406474
0.00757266 -0.00111098 -0.00412658
0.00764802 6.11822e-17 -0.00415322
0.00757266 0.00111098 -0.00412658
0.007363 0.00219683 -0.00406474
0.00706182 0.00330106 -0.00406612
0.00668739 0.00469472 -0.00418112
0.00956185 -0.00756482 -0.00896106
0.00980559 -0.00573451 -0.00852905
0.0102472 -0.003912 -0.00857502
0.0105691 -0.00199661 -0.00871693
0.0106888 -2.54093e-17 -0.00878431
0.0105691 0.00199661 -0.00871693
0.0102472 0.003912 -0.00857502
0.00980559 0.00573451 -0.00852905
0.00956185 0.00756482 -0.00896106
0.0110464 -0.00928017 -0.0129528
0.0115009 -0.00742695 -0.0127724
0.0120462 -0.00520871 -0.0130365
0.0124874 -0.00269353 -0.0133645
0.0126514 -1.84683e-17 -0.013502
0.0124874 0.00269353 -0.0133645
0.0120462 0.00520871 -0.0130365
0.0115009 0.00742695 -0.0127724
0.0110464 0.00928017 -0.0129528
0.0118758 -0.0103494 -0.0163891
0.012514 -0.00857212 -0.0167926
0.0133008 -0.00616721 -0.0175396
0.0139154 -0.0032322 -0.0181944
0.0141457 -9.6816e-18 -0.018448
0.0139154 0.0032322 -0.0181944
0.0133008 0.00616721 -0.0175396
0.012514 0.00857212 -0.0167926
0.0118758 0.0103494 -0.0163891
0.0121988 -0.0109188 -0.0192291
0.013102 -0.00930914 -0.0203993
0.0142587 -0.00684064 -0.0218239
0.0151485 -0.00362692 -0.0229233
0.0154762 -6.31489e-18 -0.023328
0.0151485 0.00362692 -0.0229233
0.0142587 0.00684064 -0.0218239
0.013102 0.00930914 -0.0203993
0.0121988 0.0109188 -0.0192291
0.0119342 -0.0109099 -0.0213262
0.0132067 -0.00955757 -0.0233296
0.0148825 -0.00715571 -0.0254995
0.0161282 -0.00382897 -0.0270685
0.0165778 1.01839e-16 -0.027625
0.0161282 0.00382897 -0.0270685
0.0148825 0.00715571 -0.0254995
0.0132067 0.00955757 -0.0233296
0.0119342 0.0109099 -0.0213262
0.0108324 -0.0100477 -0.0225775
0.0124902 -0.00903335 -0.0253057
0.0147352 -0.00688158 -0.0280692
0.0162889 -0.0037093 -0.0299951
0.0168438 7.21193e-17 -0.0306669
0.0162889 0.0037093 -0.0299951
0.0147352 0.00688158 -0.0280692
0.0124902 0.00903335 -0.0253057
0.0108324 0.0100477 -0.0225775
0.00853119 -0.00799732 -0.0230557
0.0103366 -0.00739183 -0.0261823
0.0127646 -0.00569384 -0.0291122
0.0143404 -0.00304235 -0.0312031
0.0148447 4.78376e-17 -0.0319355
0.0143404 0.00304235 -0.0312031
0.0127646 0.00569384 -0.0291122
0.0103366 0.00739183 -0.0261823
0.00853119 0.00799732 -0.0230557
0.00480384 -0.004493 -0.023135
0.00605628 -0.00420624 -0.026333
0.0077741 -0.00319032 -0.0291164
0.0087151 -0.00167111 -0.0312165
0.00895856 3.85204e-19 -0.0319952
0.0087151 0.00167111 -0.0312165
0.0077741 0.00319032 -0.0291164
0.00605628 0.00420624 -0.026333
0.00480384 0.004493 -0.023135
0.00469472 0.00668739 -0.00418112
0.00330106 0.00706182 -0.00406612
0.00219683 0.007363 -0.00406474
0.00111098 0.00757266 -0.00412658
-1.0643e-18 0.00764802 -0.00415322
-0.00111098 0.00757266 -0.00412658
-0.00219683 0.007363 -0.00406474
-0.00330106 0.00706182 -0.00406612
-0.00469472 0.00668739 -0.00418112
0.00756482 0.00956185 -0.00896106
0.00573451 0.00980559 -0.00852905
0.003912 0.0102472 -0.00857502
0.00199661 0.0105691 -0.00871693
-1.54457e-17 0.0106888 -0.00878431
-0.00199661 0.0105691 -0.00871693
-0.003912 0.0102472 -0.00857502
-0.00573451 0.00980559 -0.00852905
-0.00756482 0.00956185 -0.00896106
0.00928017 0.0110464 -0.0129528
0.00742695 0.0115009 -0.0127724
0.00520871 0.0120462 -0.0130365
0.00269353 0.0124874 -0.0133645
-3.25558e-17 0.0126514 -0.013502
-0.00269353 0.0124874 -0.0133645
-0.00520871 0.0120462 -0.0130365
-0.00742695 0.0115009 -0.0127724
-0.00928017 0.0110464 -0.0129528
0.0103494 0.0118758 -0.0163891
0.00857212 0.012514 -0.0167926
0.00616721 0.0133008 -0.0175396
0.0032322 0.0139154 -0.0181944
1.85363e-17 0.0141457 -0.018448
-0.0032322 0.0139154 -0.0181944
-0.00616721 0.0133008 -0.0175396
-0.00857212 0.012514 -0.0167926
-0.0103494 0.0118758 -0.0163891
0.0109188 0.0121988 -0.0192291
0.00930914 0.013102 -0.0203993
0.00684064 0.0142587 -0.0218239
0.00362692 0.0151485 -0.0229233
-7.78247e-17 0.0154762 -0.023328
-0.00362692 0.0151485 -0.0229233
-0.00684064 0.0142587 -0.0218239
-0.00930914 0.013102 -0.0203993
-0.0109188 0.0121988 -0.0192291
0.0109099 0.0119342 -0.0213262
0.00955757 0.0132067 -0.0233296
0.00715571 0.0148825 -0.0254995
0.00382897 0.0161282 -0.0270685
6.1112e-17 0.0165778 -0.027625
-0.00382897 0.0161282 -0.0270685
-0.00715571 0.0148825 -0.0254995
-0.00955757 0.0132067 -0.0233296
-0.0109099 0.0119342 -0.0213262
0.0100477 0.0108324 -0.0225775
0.00903335 0.0124902 -0.0253057
0.00688158 0.0147352 -0.0280692
0.0037093 0.0162889 -0.0299951
-4.94027e-17 0.0168438 -0.0306669
-0.0037093 0.0162889 -0.0299951
-0.00688158 0.0147352 -0.0280692
-0.00903335 0.0124902 -0.0253057
-0.0100477 0.0108324 -0.0225775
0.00799732 0.00853119 -0.0230557
0.00739183 0.0103366 -0.0261823
0.00569384 0.0127646 -0.0291122
0.00304235 0.0143404 -0.0312031
9.22188e-18 0.0148447 -0.0319355
-0.00304235 0.0143404 -0.0312031
-0.00569384 0.0127646 -0.0291122
-0.00739183 0.0103366 -0.0261823
-0.00799732 0.00853119 -0.0230557
0.004493 0.00480384 -0.023135
0.00420624 0.00605628 -0.026333
0.00319032 0.0077741 -0.0291164
0.00167111 0.0087151 -0.0312165
-1.33774e-17 0.00895856 -0.0319952
-0.00167111 0.0087151 -0.0312165
-0.00319032 0.0077741 -0.0291164
-0.00420624 0.00605628 -0.026333
-0.004493 0.00480384 -0.023135
-0.00668739 0.00469472 -0.00418112
-0.00706182 0.00330106 -0.00406612
-0.007363 0.00219683 -0.00406474
-0.00757266 0.00111098 -0.00412658
-0.00764802 -4.83187e-17 -0.00415322
-0.00757266 -0.00111098 -0.00412658
-0.007363 -0.00219683 -0.00406474
-0.00706182 -0.00330106 -0.00406612
-0.00668739 -0.00469472 -0.00418112
-0.00956185 0.00756482 -0.00896106
-0.00980559 0.00573451 -0.00852905
-0.0102472 0.003912 -0.00857502
-0.0105691 0.00199661 -0.00871693
-0.0106888 -7.84161e-17 -0.00878431
-0.0105691 -0.00199661 -0.00871693
-0.0102472 -0.003912 -0.00857502
-0.00980559 -0.00573451 -0.00852905
-0.00956185 -0.00756482 -0.00896106
-0.0110464 0.00928017 -0.0129528
-0.0115009 0.00742695 -0.0127724
-0.0120462 0.00520871 -0.0130365
-0.0124874 0.00269353 -0.0133645
-0.0126514 3.03556e-17 -0.013502
-0.0124874 -0.00269353 -0.0133645
-0.0120462 -0.00520871 -0.0130365
-0.0115009 -0.00742695 -0.0127724
-0.0110464 -0.00928017 -0.0129528
-0.0118758 0.0103494 -0.0163891
-0.012514 0.00857212 -0.0167926
-0.0133008 0.00616721 -0.0175396
-0.0139154 0.0032322 -0.0181944
-0.0141457 4.06041e-17 -0.018448
-0.0139154 -0.0032322 -0.0181944
-0.0133008 -0.00616721 -0.0175396
-0.012514 -0.00857212 -0.0167926
-0.0118758 -0.0103494 -0.0163891
-0.0121988 0.0109188 -0.0192291
-0.013102 0.00930914 -0.0203993
-0.0142587 0.00684064 -0.0218239
-0.0151485 0.00362692 -0.0229233
-0.0154762 3.98446e-18 -0.023328
-0.0151485 -0.00362692 -0.0229233
-0.0142587 -0.00684064 -0.0218239
-0.013102 -0.00930914 -0.0203993
-0.0121988 -0.0109188 -0.0192291
-0.0119342 0.0109099 -0.0213262
-0.0132067 0.00955757 -0.0233296
-0.0148825 0.00715571 -0.0254995
-0.0161282 0.00382897 -0.0270685
-0.0165778 -2.67291e-17 -0.027625
-0.0161282 -0.00382897 -0.0270685
-0.0148825 -0.00715571 -0.0254995
-0.0132067 -0.00955757 -0.0233296
-0.0119342 -0.0109099 -0.0213262
-0.0108324 0.0100477 -0.0225775
-0.0124902 0.00903335 -0.0253057
-0.0147352 0.00688158 -0.0280692
-0.0162889 0.0037093 -0.0299951
-0.0168438 5.31932e-17 -0.0306669
-0.0162889 -0.0037093 -0.0299951
-0.0147352 -0.00688158 -0.0280692
-0.0124902 -0.00903335 -0.0253057
-0.0108324 -0.0100477 -0.0225775
-0.00853119 0.00799732 -0.0230557
-0.0103366 0.00739183 -0.0261823
-0.0127646 0.00569384 -0.0291122
-0.0143404 0.00304235 -0.0312031
-0.0148447 3.63384e-17 -0.0319355
-0.0143404 -0.00304235 -0.0312031
-0.0127646 -0.00569384 -0.0291122
-0.0103366 -0.00739183 -0.0261823
-0.00853119 -0.00799732 -0.0230557
-0.00480384 0.004493 -0.023135
-0.00605628 0.00420624 -0.026333
-0.0077741 0.00319032 -0.0291164
-0.0087151 0.00167111 -0.0312165
-0.00895856 4.22421e-17 -0.0319952
-0.0087151 -0.00167111 -0.0312165
-0.0077741 -0.00319032 -0.0291164
-0.00605628 -0.00420624 -0.026333
-0.00480384 -0.004493 -0.023135
0 0 0
0 0 0
0 0 0
0 0 0
0 0 0
0 0 0
0 0 0
0 0 0
0 0 0
0 0 0
0 0 0
0 0 0
0 0 0
0 0 0
0 0 0
0 0 0
0 0 0
0 0 0
0 0 0
0 0 0
0 0 0
0 0 0
0 0 0
0 0 0
0 0 0
0 0 0
0 0 0
0 0 0
0 0 0
0 0 0
0 0 0
0 0 0
0 0 0
0 0 0
0 0 0
0 0 0
0 0 0
0 0 0
0 0 0
0 0 0
0 0 0
0 0 0
0 0 0
0 0 0
0 0 0
0 0 0
0 0 0
0 0 0
0 0 0
0 0 0
0 0 0
0 0 0
0 0 0
0 0 0
0 0 0
0 0 0
0 0 0
0 0 0
0 0 0
0 0 0
0 0 0
0 0 0
0 0 0
0 0 0
0 0 0
0 0 0
0 0 0
0 0 0
0 0 0
0 0 0
0 0 0
0 0 0
0 0 0
0 0 0
0 0 0
0 0 0
0 0 0
0 0 0
0 0 0
0 0 0
0 0 0
0.000105913 0.000105913 -0.0279836
0.000328347 0.000511523 -0.0326045
0.000390616 0.000614355 -0.0366294
0.000467454 0.00115022 -0.0403237
6.25067e-17 0.00152647 -0.041619
-0.000467454 0.00115022 -0.0403237
-0.000390616 0.000614355 -0.0366294
-0.000328347 0.000511523 -0.0326045
-0.000105913 0.000105913 -0.0279836
0.000511523 0.000328347 -0.0326045
0.00101199 0.00101199 -0.0415287
0.00182056 0.00139447 -0.0474384
8.10534e-05 0.00251064 -0.0558469
-9.02616e-17 0.00211475 -0.0575492
-8.10534e-05 0.00251064 -0.0558469
-0.00182056 0.00139447 -0.0474384
-0.00101199 0.00101199 -0.0415287
-0.000511523 0.000328347 -0.0326045
0.000614355 0.000390616 -0.0366294
0.00139447 0.00182056 -0.0474384
-0.00469639 -0.00469639 -0.1
-0.000550279 -0.00241877 -0.1
-9.31165e-17 -0.00220559 -0.1
0.000550279 -0.00241877 -0.1
0.00469639 -0.00469639 -0.1
-0.00139447 0.00182056 -0.0474384
-0.000614355 0.000390616 -0.0366294
0.00115022 0.000467454 -0.0403237
0.00251064 8.10534e-05 -0.0558469
-0.00241877 -0.000550279 -0.1
0.000189615 0.000189615 -0.1
9.83665e-18 0.000464806 -0.1
-0.000189615 0.000189615 -0.1
0.00241877 -0.000550279 -0.1
-0.00251064 8.10534e-05 -0.0558469
-0.00115022 0.000467454 -0.0403237
0.00152647 9.64398e-18 -0.041619
0.00211475 -1.1696e-17 -0.0575492
-0.00220559 -6.71604e-17 -0.1
0.000464806 -3.36232e-17 -0.1
-2.79405e-17 -3.05879e-17 -0.1
-0.000464806 5.11756e-17 -0.1
0.00220559 -1.40038e-16 -0.1
-0.00211475 -4.80446e-18 -0.0575492
-0.00152647 -1.89663e-17 -0.041619
0.00115022 -0.000467454 -0.0403237
0.00251064 -8.10534e-05 -0.0558469
-0.00241877 0.000550279 -0.1
0.000189615 -0.000189615 -0.1
-1.34771e-16 -0.000464806 -0.1
-0.000189615 -0.000189615 -0.1
0.00241877 0.000550279 -0.1
-0.00251064 -8.10534e-05 -0.0558469
-0.00115022 -0.000467454 -0.0403237
0.000614355 -0.000390616 -0.0366294
0.00139447 -0.00182056 -0.0474384
-0.00469639 0.00469639 -0.1
-0.000550279 0.00241877 -0.1
2.43145e-17 0.00220559 -0.1
0.000550279 0.00241877 -0.1
0.00469639 0.00469639 -0.1
-0.00139447 -0.00182056 -0.0474384
-0.000614355 -0.000390616 -0.0366294
0.000511523 -0.000328347 -0.0326045
0.00101199 -0.00101199 -0.0415287
0.00182056 -0.00139447 -0.0474384
8.10534e-05 -0.00251064 -0.0558469
3.9003e-17 -0.00211475 -0.0575492
-8.10534e-05 -0.00251064 -0.0558469
-0.00182056 -0.00139447 -0.0474384
-0.00101199 -0.00101199 -0.0415287
-0.000511523 -0.000328347 -0.0326045
0.000105913 -0.000105913 -0.0279836
0.000328347 -0.000511523 -0.0326045
0.000390616 -0.000614355 -0.0366294
0.000467454 -0.00115022 -0.0403237
-8.77971e-17 -0.00152647 -0.041619
-0.000467454 -0.00115022 -0.0403237
-0.000390616 -0.000614355 -0.0366294
-0.000328347 -0.000511523 -0.0326045
-0.000105913 -0.000105913 -0.0279836
-0.0045609 -0.0045609 -0.00264722
-0.00318523 -0.00473108 -0.0025013
-0.00208189 -0.00496007 -0.0024473
-0.00104031 -0.00512892 -0.00246425
-5.5238e-17 -0.00519094 -0.00247422
0.00104031 -0.00512892 -0.00246425
0.00208189 -0.00496007 -0.0024473
0.00318523 -0.00473108 -0.0025013
0.0045609 -0.0045609 -0.00264722
-0.00473108 -0.00318523 -0.0025013
-0.00330013 -0.00330013 -0.00232026
-0.00214553 -0.00346274 -0.00226049
-0.00106712 -0.00359437 -0.00227397
1.782e-17 -0.00364333 -0.00228309
0.00106712 -0.00359437 -0.00227397
0.00214553 -0.00346274 -0.00226049
0.00330013 -0.00330013 -0.00232026
0.00473108 -0.00318523 -0.0025013
-0.00496007 -0.00208189 -0.0024473
-0.00346274 -0.00214553 -0.00226049
-0.00225454 -0.00225454 -0.00219793
-0.00112144 -0.00234436 -0.00221323
2.71777e-17 -0.00237856 -0.00222307
0.00112144 -0.00234436 -0.00221323
0.00225454 -0.00225454 -0.00219793
0.00346274 -0.00214553 -0.00226049
0.00496007 -0.00208189 -0.0024473
-0.00512892 -0.00104031 -0.00246425
-0.00359437 -0.00106712 -0.00227397
-0.00234436 -0.00112144 -0.00221323
-0.00116744 -0.00116744 -0.00223142
1.3722e-17 -0.00118497 -0.00224259
0.00116744 -0.00116744 -0.00223142
0.00234436 -0.00112144 -0.00221323
0.00359437 -0.00106712 -0.00227397
0.00512892 -0.00104031 -0.00246425
-0.00519094 1.55046e-17 -0.00247422
-0.00364333 5.15543e-18 -0.00228309
-0.00237856 3.78321e-17 -0.00222307
-0.00118497 -3.60584e-18 -0.00224259
4.70417e-17 2.98729e-17 -0.00225425
0.00118497 -2.26637e-18 -0.00224259
0.00237856 -3.02871e-17 -0.00222307
0.00364333 4.47004e-17 -0.00228309
0.00519094 -7.00841e-17 -0.00247422
-0.00512892 0.00104031 -0.00246425
-0.00359437 0.00106712 -0.00227397
-0.00234436 0.00112144 -0.00221323
-0.00116744 0.00116744 -0.00223142
-1.76666e-17 0.00118497 -0.00224259
0.00116744 0.00116744 -0.00223142
0.00234436 0.00112144 -0.00221323
0.00359437 0.00106712 -0.00227397
0.00512892 0.00104031 -0.00246425
-0.00496007 0.00208189 -0.0024473
-0.00346274 0.00214553 -0.00226049
-0.00225454 0.00225454 -0.00219793
-0.00112144 0.00234436 -0.00221323
6.50734e-18 0.00237856 -0.00222307
0.00112144 0.00234436 -0.00221323
0.00225454 0.00225454 -0.00219793
0.00346274 0.00214553 -0.00226049
0.00496007 0.00208189 -0.0024473
-0.00473108 0.00318523 -0.0025013
-0.00330013 0.00330013 -0.00232026
-0.00214553 0.00346274 -0.00226049
-0.00106712 0.00359437 -0.00227397
3.44461e-18 0.00364333 -0.00228309
0.00106712 0.00359437 -0.00227397
0.00214553 0.00346274 -0.00226049
0.00330013 0.00330013 -0.00232026
0.00473108 0.00318523 -0.0025013
-0.0045609 0.0045609 -0.00264722
-0.00318523 0.00473108 -0.0025013
-0.00208189 0.00496007 -0.0024473
-0.00104031 0.00512892 -0.00246425
1.61068e-17 0.00519094 -0.00247422
0.00104031 0.00512892 -0.00246425
0.00208189 0.00496007 -0.0024473
0.00318523 0.00473108 -0.0025013
0.0045609 0.0045609 -0.00264722
-0.00759063 -0.00759063 -0.00738689
-0.00562688 -0.00783466 -0.0069193
-0.00377305 -0.00820267 -0.00689481
-0.00190445 -0.00849496 -0.00697602
4.53862e-17 -0.008604 -0.00702042
0.00190445 -0.00849496 -0.00697602
0.00377305 -0.00820267 -0.00689481
0.00562688 -0.00783466 -0.0069193
0.00759063 -0.00759063 -0.00738689
-0.00783466 -0.00562688 -0.0069193
-0.00579457 -0.00579457 -0.0063814
-0.00387506 -0.00607686 -0.00634201
-0.00194989 -0.00630909 -0.00641548
-1.83653e-17 -0.00639753 -0.00645754
0.00194989 -0.00630909 -0.00641548
0.00387506 -0.00607686 -0.00634201
0.00579457 -0.00579457 -0.0063814
0.00783466 -0.00562688 -0.0069193
-0.00820267 -0.00377305 -0.00689481
-0.00607686 -0.00387506 -0.00634201
-0.0040678 -0.0040678 -0.00631004
-0.00204796 -0.00423069 -0.00639828
-1.48785e-17 -0.00429307 -0.00644647
0.00204796 -0.00423069 -0.00639828
0.0040678 -0.0040678 -0.00631004
0.00607686 -0.00387506 -0.00634201
0.00820267 -0.00377305 -0.00689481
-0.00849496 -0.00190445 -0.00697602
-0.00630909 -0.00194989 -0.00641548
-0.00423069 -0.00204796 -0.00639828
-0.00213209 -0.00213209 -0.00650168
2.51932e-17 -0.00216449 -0.00655636
0.00213209 -0.00213209 -0.00650168
0.00423069 -0.00204796 -0.00639828
0.00630909 -0.00194989 -0.00641548
0.00849496 -0.00190445 -0.00697602
-0.008604 -5.40288e-18 -0.00702042
-0.00639753 -5.22516e-17 -0.00645754
-0.00429307 3.42442e-17 -0.00644647
-0.00216449 2.70924e-17 -0.00655636
-1.76497e-17 6.56707e-17 -0.00661361
0.00216449 3.30808e-17 -0.00655636
0.00429307 -3.08695e-17 -0.00644647
0.00639753 3.13223e-17 -0.00645754
0.008604 8.97632e-17 -0.00702042
-0.00849496 0.00190445 -0.00697602
-0.00630909 0.00194989 -0.00641548
-0.00423069 0.00204796 -0.00639828
-0.00213209 0.00213209 -0.00650168
4.44754e-17 0.00216449 -0.00655636
0.00213209 0.00213209 -0.00650168
0.00423069 0.00204796 -0.00639828
0.00630909 0.00194989 -0.00641548
0.00849496 0.00190445 -0.00697602
-0.00820267 0.00377305 -0.00689481
-0.00607686 0.00387506 -0.00634201
-0.0040678 0.0040678 -0.00631004
-0.00204796 0.00423069 -0.00639828
2.04973e-17 0.00429307 -0.00644647
0.00204796 0.00423069 -0.00639828
0.0040678 0.0040678 -0.00631004
0.00607686 0.00387506 -0.00634201
0.00820267 0.00377305 -0.00689481
-0.00783466 0.00562688 -0.0069193
-0.00579457 0.00579457 -0.0063814
-0.00387506 0.00607686 -0.00634201
-0.00194989 0.00630909 -0.00641548
-8.43215e-18 0.00639753 -0.00645754
0.00194989 0.00630909 -0.00641548
0.00387506 0.00607686 -0.00634201
0.00579457 0.00579457 -0.0063814
0.00783466 0.00562688 -0.0069193
-0.00759063 0.00759063 -0.00738689
-0.00562688 0.00783466 -0.0069193
-0.00377305 0.00820267 -0.00689481
-0.00190445 0.00849496 -0.00697602
3.58468e-17 0.008604 -0.00702042
0.00190445 0.00849496 -0.00697602
0.00377305 0.00820267 -0.00689481
0.00562688 0.00783466 -0.0069193
0.00759063 0.00759063 -0.00738689
-0.00930962 -0.00930962 -0.011968
-0.0072914 -0.00969853 -0.0116928
-0.00503065 -0.0102138 -0.0118652
-0.00257468 -0.0106346 -0.0121223
4.52405e-17 -0.0107935 -0.0122332
0.00257468 -0.0106346 -0.0121223
0.00503065 -0.0102138 -0.0118652
0.0072914 -0.00969853 -0.0116928
0.00930962 -0.00930962 -0.011968
-0.00969853 -0.0072914 -0.0116928
-0.00757315 -0.00757315 -0.011404
-0.00520618 -0.008 -0.011584
-0.00265801 -0.00835416 -0.0118568
1.15835e-17 -0.00848908 -0.0119738
0.00265801 -0.00835416 -0.0118568
0.00520618 -0.008 -0.011584
0.00757315 -0.00757315 -0.011404
0.00969853 -0.0072914 -0.0116928
-0.0102138 -0.00503065 -0.0118652
-0.008 -0.00520618 -0.011584
-0.0055093 -0.0055093 -0.0118188
-0.00281513 -0.00576535 -0.0121436
7.66261e-17 -0.00586347 -0.0122813
0.00281513 -0.00576535 -0.0121436
0.0055093 -0.0055093 -0.0118188
0.008 -0.00520618 -0.011584
0.0102138 -0.00503065 -0.0118652
-0.0106346 -0.00257468 -0.0121223
-0.00835416 -0.00265801 -0.0118568
-0.00576535 -0.00281513 -0.0121436
-0.00294978 -0.00294978 -0.0125166
8.98308e-18 -0.00300154 -0.0126733
0.00294978 -0.00294978 -0.0125166
0.00576535 -0.00281513 -0.0121436
0.00835416 -0.00265801 -0.0118568
0.0106346 -0.00257468 -0.0121223
-0.0107935 -5.9638e-17 -0.0122332
-0.00848908 -8.17601e-17 -0.0119738
-0.00586347 3.239e-17 -0.0122813
-0.00300154 -4.9342e-17 -0.0126733
2.47924e-17 4.32334e-17 -0.0128375
0.00300154 8.77017e-17 -0.0126733
0.00586347 8.26329e-17 -0.0122813
0.00848908 8.53218e-17 -0.0119738
0.0107935 -4.66867e-17 -0.0122332
-0.0106346 0.00257468 -0.0121223
-0.00835416 0.00265801 -0.0118568
-0.00576535 0.00281513 -0.0121436
-0.00294978 0.00294978 -0.0125166
1.59139e-17 0.00300154 -0.0126733
0.00294978 0.00294978 -0.0125166
0.00576535 0.00281513 -0.0121436
0.00835416 0.00265801 -0.0118568
0.0106346 0.00257468 -0.0121223
-0.0102138 0.00503065 -0.0118652
-0.008 0.00520618 -0.011584
-0.0055093 0.0055093 -0.0118188
-0.00281513 0.00576535 -0.0121436
4.2049e-17 0.00586347 -0.0122813
0.00281513 0.00576535 -0.0121436
0.0055093 0.0055093 -0.0118188
0.008 0.00520618 -0.011584
0.0102138 0.00503065 -0.0118652
-0.00969853 0.0072914 -0.0116928
-0.00757315 0.00757315 -0.011404
-0.00520618 0.008 -0.011584
-0.00265801 0.00835416 -0.0118568
1.26304e-17 0.00848908 -0.0119738
0.00265801 0.00835416 -0.0118568
0.00520618 0.008 -0.011584
0.00757315 0.00757315 -0.011404
0.00969853 0.0072914 -0.0116928
-0.00930962 0.00930962 -0.011968
-0.0072914 0.00969853 -0.0116928
-0.00503065 0.0102138 -0.0118652
-0.00257468 0.0106346 -0.0121223
2.0327e-17 0.0107935 -0.0122332
0.00257468 0.0106346 -0.0121223
0.00503065 0.0102138 -0.0118652
0.0072914 0.00969853 -0.0116928
0.00930962 0.00930962 -0.011968
-0.0103656 -0.0103656 -0.0160618
-0.00840359 -0.0109382 -0.0163611
-0.00594391 -0.0117119 -0.0170073
-0.00308256 -0.0123317 -0.0175881
5.33373e-17 -0.0125656 -0.017815
0.00308256 -0.0123317 -0.0175881
0.00594391 -0.0117119 -0.0170073
0.00840359 -0.0109382 -0.0163611
0.0103656 -0.0103656 -0.0160618
-0.0109382 -0.00840359 -0.0163611
-0.00885107 -0.00885107 -0.0167062
-0.00624838 -0.00952008 -0.0174535
-0.00323456 -0.010065 -0.0181163
-6.28393e-18 -0.0102719 -0.0183748
0.00323456 -0.010065 -0.0181163
0.00624838 -0.00952008 -0.0174535
0.00885107 -0.00885107 -0.0167062
0.0109382 -0.00840359 -0.0163611
-0.0117119 -0.00594391 -0.0170073
-0.00952008 -0.00624838 -0.0174535
-0.00674075 -0.00674075 -0.0183799
-0.00349556 -0.0071476 -0.0191884
1.55396e-17 -0.00730255 -0.0195029
0.00349556 -0.0071476 -0.0191884
0.00674075 -0.00674075 -0.0183799
0.00952008 -0.00624838 -0.0174535
0.0117119 -0.00594391 -0.0170073
-0.0123317 -0.00308256 -0.0175881
-0.010065 -0.00323456 -0.0181163
-0.0071476 -0.00349556 -0.0191884
-0.00371312 -0.00371312 -0.0201195
2.45744e-17 -0.00379624 -0.0204811
0.00371312 -0.00371312 -0.0201195
0.0071476 -0.00349556 -0.0191884
0.010065 -0.00323456 -0.0181163
0.0123317 -0.00308256 -0.0175881
-0.0125656 -6.64617e-17 -0.017815
-0.0102719 -4.33301e-17 -0.0183748
-0.00730255 -6.72881e-17 -0.0195029
-0.00379624 6.38948e-17 -0.0204811
3.60674e-17 6.79625e-17 -0.0208614
0.00379624 -7.13134e-18 -0.0204811
0.00730255 2.80948e-18 -0.0195029
0.0102719 2.66751e-17 -0.0183748
0.0125656 -2.14328e-17 -0.017815
-0.0123317 0.00308256 -0.0175881
-0.010065 0.00323456 -0.0181163
-0.0071476 0.00349556 -0.0191884
-0.00371312 0.00371312 -0.0201195
-5.77149e-17 0.00379624 -0.0204811
0.00371312 0.00371312 -0.0201195
0.0071476 0.00349556 -0.0191884
0.010065 0.00323456 -0.0181163
0.0123317 0.00308256 -0.0175881
-0.0117119 0.00594391 -0.0170073
-0.00952008 0.00624838 -0.0174535
-0.00674075 0.00674075 -0.0183799
-0.00349556 0.0071476 -0.0191884
5.17631e-17 0.00730255 -0.0195029
0.00349556 0.0071476 -0.0191884
0.00674075 0.00674075 -0.0183799
0.00952008 0.00624838 -0.0174535
0.0117119 0.00594391 -0.0170073
-0.0109382 0.00840359 -0.0163611
-0.00885107 0.00885107 -0.0167062
-0.00624838 0.00952008 -0.0174535
-0.00323456 0.010065 -0.0181163
5.99264e-17 0.0102719 -0.0183748
0.00323456 0.010065 -0.0181163
0.00624838 0.00952008 -0.0174535
0.00885107 0.00885107 -0.0167062
0.0109382 0.00840359 -0.0163611
-0.0103656 0.0103656 -0.0160618
-0.00840359 0.0109382 -0.0163611
-0.00594391 0.0117119 -0.0170073
-0.00308256 0.0123317 -0.0175881
-1.85651e-19 0.0125656 -0.017815
0.00308256 0.0123317 -0.0175881
0.00594391 0.0117119 -0.0170073
0.00840359 0.0109382 -0.0163611
0.0103656 0.0103656 -0.0160618
-0.0109572 -0.0109572 -0.0196382
-0.009124 -0.0118303 -0.0207419
-0.00658259 -0.0130246 -0.0221125
-0.00345236 -0.0139652 -0.0231714
2.34428e-17 -0.0143152 -0.0235636
0.00345236 -0.0139652 -0.0231714
0.00658259 -0.0130246 -0.0221125
0.009124 -0.0118303 -0.0207419
0.0109572 -0.0109572 -0.0196382
-0.0118303 -0.009124 -0.0207419
-0.00986638 -0.00986638 -0.0220425
-0.00712174 -0.0109428 -0.0237216
-0.00373274 -0.0117992 -0.0250157
5.62866e-18 -0.0121207 -0.0254952
0.00373274 -0.0117992 -0.0250157
0.00712174 -0.0109428 -0.0237216
0.00986638 -0.00986638 -0.0220425
0.0118303 -0.009124 -0.0207419
-0.0130246 -0.00658259 -0.0221125
-0.0109428 -0.00712174 -0.0237216
-0.00794376 -0.00794376 -0.0258518
-0.00417694 -0.00859945 -0.0274939
-4.93549e-17 -0.00884567 -0.028106
0.00417694 -0.00859945 -0.0274939
0.00794376 -0.00794376 -0.0258518
0.0109428 -0.00712174 -0.0237216
0.0130246 -0.00658259 -0.0221125
-0.0139652 -0.00345236 -0.0231714
-0.0117992 -0.00373274 -0.0250157
-0.00859945 -0.00417694 -0.0274939
-0.00453232 -0.00453232 -0.0294121
5.66394e-17 -0.00466517 -0.0301277
0.00453232 -0.00453232 -0.0294121
0.00859945 -0.00417694 -0.0274939
0.0117992 -0.00373274 -0.0250157
0.0139652 -0.00345236 -0.0231714
-0.0143152 5.41942e-17 -0.0235636
-0.0121207 3.01569e-17 -0.0254952
-0.00884567 5.05981e-17 -0.028106
-0.00466517 -5.3859e-17 -0.0301277
4.06131e-17 -8.38201e-17 -0.0308832
0.00466517 3.86263e-17 -0.0301277
0.00884567 5.70031e-18 -0.028106
0.0121207 -4.73468e-17 -0.0254952
0.0143152 3.96816e-17 -0.0235636
-0.0139652 0.00345236 -0.0231714
-0.0117992 0.00373274 -0.0250157
-0.00859945 0.00417694 -0.0274939
-0.00453232 0.00453232 -0.0294121
3.35901e-17 0.00466517 -0.0301277
0.00453232 0.00453232 -0.0294121
0.00859945 0.00417694 -0.0274939
0.0117992 0.00373274 -0.0250157
0.0139652 0.00345236 -0.0231714
-0.0130246 0.00658259 -0.0221125
-0.0109428 0.00712174 -0.0237216
-0.00794376 0.00794376 -0.0258518
-0.00417694 0.00859945 -0.0274939
5.60963e-17 0.00884567 -0.028106
0.00417694 0.00859945 -0.0274939
0.00794376 0.00794376 -0.0258518
0.0109428 0.00712174 -0.0237216
0.0130246 0.00658259 -0.0221125
-0.0118303 0.009124 -0.0207419
-0.00986638 0.00986638 -0.0220425
-0.00712174 0.0109428 -0.0237216
-0.00373274 0.0117992 -0.0250157
9.1073e-17 0.0121207 -0.0254952
0.00373274 0.0117992 -0.0250157
0.00712174 0.0109428 -0.0237216
0.00986638 0.00986638 -0.0220425
0.0118303 0.009124 -0.0207419
-0.0109572 0.0109572 -0.0196382
-0.009124 0.0118303 -0.0207419
-0.00658259 0.0130246 -0.0221125
-0.00345236 0.0139652 -0.0231714
2.94833e-17 0.0143152 -0.0235636
0.00345236 0.0139652 -0.0231714
0.00658259 0.0130246 -0.0221125
0.009124 0.0118303 -0.0207419
0.0109572 0.0109572 -0.0196382
-0.0110302 -0.0110302 -0.0226093
-0.00941393 -0.0123665 -0.0246706
-0.00691477 -0.0141963 -0.0269598
-0.00365841 -0.0155822 -0.0286061
-1.59261e-17 -0.0160845 -0.0291982
0.00365841 -0.0155822 -0.0286061
0.00691477 -0.0141963 -0.0269598
0.00941393 -0.0123665 -0.0246706
0.0110302 -0.0110302 -0.0226093
-0.0123665 -0.00941393 -0.0246706
-0.0106333 -0.0106333 -0.0272439
-0.00785237 -0.0123725 -0.030266
-0.00416018 -0.0136841 -0.0324536
5.30964e-17 -0.0141582 -0.0332403
0.00416018 -0.0136841 -0.0324536
0.00785237 -0.0123725 -0.030266
0.0106333 -0.0106333 -0.0272439
0.0123665 -0.00941393 -0.0246706
-0.0141963 -0.00691477 -0.0269598
-0.0123725 -0.00785237 -0.030266
-0.0092318 -0.0092318 -0.0343254
-0.00491994 -0.0102601 -0.0372706
1.52815e-17 -0.0106284 -0.0383483
0.00491994 -0.0102601 -0.0372706
0.0092318 -0.0092318 -0.0343254
0.0123725 -0.00785237 -0.030266
0.0141963 -0.00691477 -0.0269598
-0.0155822 -0.00365841 -0.0286061
-0.0136841 -0.00416018 -0.0324536
-0.0102601 -0.00491994 -0.0372706
-0.00547635 -0.00547635 -0.0407713
-3.15227e-17 -0.00567298 -0.0420425
0.00547635 -0.00547635 -0.0407713
0.0102601 -0.00491994 -0.0372706
0.0136841 -0.00416018 -0.0324536
0.0155822 -0.00365841 -0.0286061
-0.0160845 1.53963e-17 -0.0291982
-0.0141582 6.73272e-17 -0.0332403
-0.0106284 8.27674e-17 -0.0383483
-0.00567298 2.14986e-17 -0.0420425
-3.64727e-17 6.54173e-17 -0.0433845
0.00567298 6.91958e-18 -0.0420425
0.0106284 -7.42242e-18 -0.0383483
0.0141582 -3.05854e-17 -0.0332403
0.0160845 6.11382e-17 -0.0291982
-0.0155822 0.00365841 -0.0286061
-0.0136841 0.00416018 -0.0324536
-0.0102601 0.00491994 -0.0372706
-0.00547635 0.00547635 -0.0407713
2.36541e-17 0.00567298 -0.0420425
0.00547635 0.00547635 -0.0407713
0.0102601 0.00491994 -0.0372706
0.0136841 0.00416018 -0.0324536
0.0155822 0.00365841 -0.0286061
-0.0141963 0.00691477 -0.0269598
-0.0123725 0.00785237 -0.030266
-0.0092318 0.0092318 -0.0343254
-0.00491994 0.0102601 -0.0372706
-7.63041e-17 0.0106284 -0.0383483
0.00491994 0.0102601 -0.0372706
0.0092318 0.0092318 -0.0343254
0.0123725 0.00785237 -0.030266
0.0141963 0.00691477 -0.0269598
-0.0123665 0.00941393 -0.0246706
-0.0106333 0.0106333 -0.0272439
-0.00785237 0.0123725 -0.030266
-0.00416018 0.0136841 -0.0324536
-7.85583e-17 0.0141582 -0.0332403
0.00416018 0.0136841 -0.0324536
0.00785237 0.0123725 -0.030266
0.0106333 0.0106333 -0.0272439
0.0123665 0.00941393 -0.0246706
-0.0110302 0.0110302 -0.0226093
-0.00941393 0.0123665 -0.0246706
-0.00691477 0.0141963 -0.0269598
-0.00365841 0.0155822 -0.0286061
-6.57681e-18 0.0160845 -0.0291982
0.00365841 0.0155822 -0.0286061
0.00691477 0.0141963 -0.0269598
0.00941393 0.0123665 -0.0246706
0.0110302 0.0110302 -0.0226093
-0.0103104 -0.0103104 -0.0248795
-0.00901948 -0.0122113 -0.0279217
-0.00674494 -0.0148682 -0.0312127
-0.00359573 -0.0167096 -0.0334509
-8.66046e-17 -0.0173358 -0.0342594
0.00359573 -0.0167096 -0.0334509
0.00674494 -0.0148682 -0.0312127
0.00901948 -0.0122113 -0.0279217
0.0103104 -0.0103104 -0.0248795
-0.0122113 -0.00901948 -0.0279217
-0.0108981 -0.0108981 -0.0320382
-0.00826709 -0.0136456 -0.0368431
-0.00442314 -0.0154586 -0.0401817
5.25938e-17 -0.0160642 -0.0413486
0.00442314 -0.0154586 -0.0401817
0.00826709 -0.0136456 -0.0368431
0.0108981 -0.0108981 -0.0320382
0.0122113 -0.00901948 -0.0279217
-0.0148682 -0.00674494 -0.0312127
-0.0136456 -0.00826709 -0.0368431
-0.0105987 -0.0105987 -0.0440646
-0.00568985 -0.0120379 -0.0489395
-5.67341e-17 -0.0125063 -0.0506724
0.00568985 -0.0120379 -0.0489395
0.0105987 -0.0105987 -0.0440646
0.0136456 -0.00826709 -0.0368431
0.0148682 -0.00674494 -0.0312127
-0.0167096 -0.00359573 -0.0334509
-0.0154586 -0.00442314 -0.0401817
-0.0120379 -0.00568985 -0.0489395
-0.00645365 -0.00645365 -0.0547599
6.80424e-17 -0.00668824 -0.0567599
0.00645365 -0.00645365 -0.0547599
0.0120379 -0.00568985 -0.0489395
0.0154586 -0.00442314 -0.0401817
0.0167096 -0.00359573 -0.0334509
-0.0173358 5.47579e-18 -0.0342594
-0.0160642 6.02914e-17 -0.0413486
-0.0125063 5.51345e-17 -0.0506724
-0.00668824 -4.47265e-17 -0.0567599
-8.26315e-17 3.85843e-17 -0.0588502
0.00668824 2.40672e-17 -0.0567599
0.0125063 1.14331e-16 -0.0506724
0.0160642 -6.42408e-18 -0.0413486
0.0173358 9.96269e-17 -0.0342594
-0.0167096 0.00359573 -0.0334509
-0.0154586 0.00442314 -0.0401817
-0.0120379 0.00568985 -0.0489395
-0.00645365 0.00645365 -0.0547599
1.9775e-17 0.00668824 -0.0567599
0.00645365 0.00645365 -0.0547599
0.0120379 0.00568985 -0.0489395
0.0154586 0.00442314 -0.0401817
0.0167096 0.00359573 -0.0334509
-0.0148682 0.00674494 -0.0312127
-0.0136456 0.00826709 -0.0368431
-0.0105987 0.0105987 -0.0440646
-0.00568985 0.0120379 -0.0489395
2.10509e-17 0.0125063 -0.0506724
0.00568985 0.0120379 -0.0489395
0.0105987 0.0105987 -0.0440646
0.0136456 0.00826709 -0.0368431
0.0148682 0.00674494 -0.0312127
-0.0122113 0.00901948 -0.0279217
-0.0108981 0.0108981 -0.0320382
-0.00826709 0.0136456 -0.0368431
-0.00442314 0.0154586 -0.0401817
6.47642e-17 0.0160642 -0.0413486
0.00442314 0.0154586 -0.0401817
0.00826709 0.0136456 -0.0368431
0.0108981 0.0108981 -0.0320382
0.0122113 0.00901948 -0.0279217
-0.0103104 0.0103104 -0.0248795
-0.00901948 0.0122113 -0.0279217
-0.00674494 0.0148682 -0.0312127
-0.00359573 0.0167096 -0.0334509
3.86696e-17 0.0173358 -0.0342594
0.00359573 0.0167096 -0.0334509
0.00674494 0.0148682 -0.0312127
0.00901948 0.0122113 -0.0279217
0.0103104 0.0103104 -0.0248795
-0.00835721 -0.00835721 -0.0264378
-0.00749959 -0.0106547 -0.0302576
-0.00571229 -0.0140618 -0.0342591
-0.00304493 -0.0159712 -0.0369515
3.21294e-17 -0.0164509 -0.0380589
0.00304493 -0.0159712 -0.0369515
0.00571229 -0.0140618 -0.0342591
0.00749959 -0.0106547 -0.0302576
0.00835721 -0.00835721 -0.0264378
-0.0106547 -0.00749959 -0.0302576
-0.00992553 -0.00992553 -0.0359842
-0.0078249 -0.0142614 -0.0427774
-0.00421557 -0.0161907 -0.0474617
3.57001e-17 -0.0165234 -0.0490449
0.00421557 -0.0161907 -0.0474617
0.0078249 -0.0142614 -0.0427774
0.00992553 -0.00992553 -0.0359842
0.0106547 -0.00749959 -0.0302576
-0.0140618 -0.00571229 -0.0342591
-0.0142614 -0.0078249 -0.0427774
-0.0117755 -0.0117755 -0.0558469
-0.00620815 -0.0133448 -0.0631714
-8.20815e-17 -0.0135783 -0.0655541
0.00620815 -0.0133448 -0.0631714
0.0117755 -0.0117755 -0.0558469
0.0142614 -0.0078249 -0.0427774
0.0140618 -0.00571229 -0.0342591
-0.0159712 -0.00304493 -0.0369515
-0.0161907 -0.00421557 -0.0474617
-0.0133448 -0.00620815 -0.0631714
-0.00695871 -0.00695871 -0.0716437
-6.3137e-17 -0.0070579 -0.0741003
0.00695871 -0.00695871 -0.0716437
0.0133448 -0.00620815 -0.0631714
0.0161907 -0.00421557 -0.0474617
0.0159712 -0.00304493 -0.0369515
-0.0164509 5.24632e-17 -0.0380589
-0.0165234 1.13512e-16 -0.0490449
-0.0135783 8.80813e-18 -0.0655541
-0.0070579 1.2629e-16 -0.0741003
5.31943e-18 -2.50674e-18 -0.0767088
0.0070579 4.96166e-17 -0.0741003
0.0135783 7.01364e-17 -0.0655541
0.0165234 1.32604e-16 -0.0490449
0.0164509 7.27621e-17 -0.0380589
-0.0159712 0.00304493 -0.0369515
-0.0161907 0.00421557 -0.0474617
-0.0133448 0.00620815 -0.0631714
-0.00695871 0.00695871 -0.0716437
1.00376e-17 0.0070579 -0.0741003
0.00695871 0.00695871 -0.0716437
0.0133448 0.00620815 -0.0631714
0.0161907 0.00421557 -0.0474617
0.0159712 0.00304493 -0.0369515
-0.0140618 0.00571229 -0.0342591
-0.0142614 0.0078249 -0.0427774
-0.0117755 0.0117755 -0.0558469
-0.00620815 0.0133448 -0.0631714
-1.12798e-16 0.0135783 -0.0655541
0.00620815 0.0133448 -0.0631714
0.0117755 0.0117755 -0.0558469
0.0142614 0.0078249 -0.0427774
0.0140618 0.00571229 -0.0342591
-0.0106547 0.00749959 -0.0302576
-0.00992553 0.00992553 -0.0359842
-0.0078249 0.0142614 -0.0427774
-0.00421557 0.0161907 -0.0474617
4.78236e-17 0.0165234 -0.0490449
0.00421557 0.0161907 -0.0474617
0.0078249 0.0142614 -0.0427774
0.00992553 0.00992553 -0.0359842
0.0106547 0.00749959 -0.0302576
-0.00835721 0.00835721 -0.0264378
-0.00749959 0.0106547 -0.0302576
-0.00571229 0.0140618 -0.0342591
-0.00304493 0.0159712 -0.0369515
8.46876e-18 0.0164509 -0.0380589
0.00304493 0.0159712 -0.0369515
0.00571229 0.0140618 -0.0342591
0.00749959 0.0106547 -0.0302576
0.00835721 0.00835721 -0.0264378
-0.00483815 -0.00483815 -0.0273419
-0.00454712 -0.00658428 -0.0315846
-0.00341286 -0.00952917 -0.0354107
-0.00160428 -0.0104608 -0.0386354
5.39639e-17 -0.0105634 -0.0400117
0.00160428 -0.0104608 -0.0386354
0.00341286 -0.00952917 -0.0354107
0.00454712 -0.00658428 -0.0315846
0.00483815 -0.00483815 -0.0273419
-0.00658428 -0.00454712 -0.0315846
-0.00647552 -0.00647552 -0.0389058
-0.00494948 -0.0127923 -0.0461552
-0.00267917 -0.012503 -0.0526434
8.1966e-17 -0.0126241 -0.0544249
0.00267917 -0.012503 -0.0526434
0.00494948 -0.0127923 -0.0461552
0.00647552 -0.00647552 -0.0389058
0.00658428 -0.00454712 -0.0315846
-0.00952917 -0.00341286 -0.0354107
-0.0127923 -0.00494948 -0.0461552
-0.0130509 -0.0130509 -0.0729655
-0.00545644 -0.0123434 -0.0812468
3.16343e-17 -0.0122832 -0.0828259
0.00545644 -0.0123434 -0.0812468
0.0130509 -0.0130509 -0.0729655
0.0127923 -0.00494948 -0.0461552
0.00952917 -0.00341286 -0.0354107
-0.0104608 -0.00160428 -0.0386354
-0.012503 -0.00267917 -0.0526434
-0.0123434 -0.00545644 -0.0812468
-0.00528306 -0.00528306 -0.0897453
-5.50573e-17 -0.00506933 -0.0910235
0.00528306 -0.00528306 -0.0897453
0.0123434 -0.00545644 -0.0812468
0.012503 -0.00267917 -0.0526434
0.0104608 -0.00160428 -0.0386354
-0.0105634 8.89174e-17 -0.0400117
-0.0126241 5.57734e-17 -0.0544249
-0.0122832 9.97486e-17 -0.0828259
-0.00506933 1.27702e-18 -0.0910235
6.79478e-17 1.09058e-16 -0.0924574
0.00506933 -3.8754e-17 -0.0910235
0.0122832 -2.26892e-17 -0.0828259
0.0126241 -7.92917e-17 -0.0544249
0.0105634 4.22201e-17 -0.0400117
-0.0104608 0.00160428 -0.0386354
-0.012503 0.00267917 -0.0526434
-0.0123434 0.00545644 -0.0812468
-0.00528306 0.00528306 -0.0897453
3.74162e-17 0.00506933 -0.0910235
0.00528306 0.00528306 -0.0897453
0.0123434 0.00545644 -0.0812468
0.012503 0.00267917 -0.0526434
0.0104608 0.00160428 -0.0386354
-0.00952917 0.00341286 -0.0354107
-0.0127923 0.00494948 -0.0461552
-0.0130509 0.0130509 -0.0729655
-0.00545644 0.0123434 -0.0812468
-9.08042e-17 0.0122832 -0.0828259
0.00545644 0.0123434 -0.0812468
0.0130509 0.0130509 -0.0729655
0.0127923 0.00494948 -0.0461552
0.00952917 0.00341286 -0.0354107
-0.00658428 0.00454712 -0.0315846
-0.00647552 0.00647552 -0.0389058
-0.00494948 0.0127923 -0.0461552
-0.00267917 0.012503 -0.0526434
1.17078e-17 0.0126241 -0.0544249
0.00267917 0.012503 -0.0526434
0.00494948 0.0127923 -0.0461552
0.00647552 0.00647552 -0.0389058
0.00658428 0.00454712 -0.0315846
-0.00483815 0.00483815 -0.0273419
-0.00454712 0.00658428 -0.0315846
-0.00341286 0.00952917 -0.0354107
-0.00160428 0.0104608 -0.0386354
2.82634e-17 0.0105634 -0.0400117
0.00160428 0.0104608 -0.0386354
0.00341286 0.00952917 -0.0354107
0.00454712 0.00658428 -0.0315846
0.00483815 0.00483815 -0.0273419
TENSORS nodal_strain float
-6.46281e-05 -3.16287e-05 -0.0350066
-3.16287e-05 -6.46281e-05 -0.0350066
-0.0350066 -0.0350066 -0.0507273

-6.46281e-05 3.16287e-05 0.0350066
3.16287e-05 -6.46281e-05 -0.0350066
0.0350066 -0.0350066 -0.0507273

-6.46281e-05 -3.16287e-05 0.0350066
-3.16287e-05 -6.46281e-05 0.0350066
0.0350066 0.0350066 -0.0507273

-6.46281e-05 3.16287e-05 -0.0350066
3.16287e-05 -6.46281e-05 0.0350066
-0.0350066 0.0350066 -0.0507273

-0.00074125 0.00149662 0.00191942
0.00149662 -0.00074125 0.00191942
0.00191942 0.00191942 0.00375017

-0.00074125 -0.00149662 -0.00191942
-0.00149662 -0.00074125 0.00191942
-0.00191942 0.00191942 0.00375017

-0.00074125 0.00149662 -0.00191942
0.00149662 -0.00074125 -0.00191942
-0.00191942 -0.00191942 0.00375017

-0.00074125 -0.00149662 0.00191942
-0.00149662 -0.00074125 -0.00191942
0.00191942 -0.00191942 0.00375017

-1.74045e-05 3.61103e-06 -0.0234736
3.61103e-06 -5.73794e-05 -0.033437
-0.0234736 -0.033437 -0.0376739

-1.09059e-05 4.76591e-06 -0.0165053
4.76591e-06 -6.57759e-05 -0.0353091
-0.0165053 -0.0353091 -0.0368729

-1.02159e-05 3.99181e-06 -0.0109841
3.99181e-06 -7.00206e-05 -0.036815
-0.0109841 -0.036815 -0.0369495

-1.03313e-05 1.24925e-06 -0.00555491
1.24925e-06 -7.28273e-05 -0.0378633
-0.00555491 -0.0378633 -0.0375685

-1.03313e-05 -1.91567e-06 1.81864e-15
-1.91567e-06 -7.37947e-05 -0.0382401
1.81864e-15 -0.0382401 -0.0378292

-1.02159e-05 -4.4868e-06 0.00555491
-4.4868e-06 -7.28271e-05 -0.0378633
0.00555491 -0.0378633 -0.0375684

-1.09059e-05 -4.95463e-06 0.0109841
-4.95463e-06 -7.00173e-05 -0.036815
0.0109841 -0.036815 -0.0369502

-1.74045e-05 -4.42762e-06 0.0165053
-4.42762e-06 -6.57273e-05 -0.0353091
0.0165053 -0.0353091 -0.0368794

-6.46281e-05 2.77188e-05 0.0234736
2.77188e-05 -5.7349e-05 -0.033437
0.0234736 -0.033437 -0.0377211

0.0234483 -0.00332307 0.0043653
-0.00332307 0.0234483 -0.0043653
0.0043653 -0.0043653 -0.0458372

0.017348 0.00282019 0.000313895
0.00282019 0.017348 -0.000313895
0.000313895 -0.000313895 -0.0332202

0.0149846 0.00283229 -0.000166568
0.00283229 0.0149846 0.000166568
-0.000166568 0.000166568 -0.0273642

0.0126231 0.00275571 0.000122947
0.00275571 0.0126231 -0.000122947
0.000122947 -0.000122947 -0.0208843

0.00960931 0.00327098 0.000411744
0.00327098 0.00960931 -0.000411744
0.000411744 -0.000411744 -0.0126402

0.00589908 0.00439403 0.000186563
0.00439403 0.00589908 -0.000186563
0.000186563 -0.000186563 -0.00348952

0.00210345 0.00577151 -0.000770111
0.00577151 0.00210345 0.000770111
-0.000770111 0.000770111 0.00402696

-0.00076908 0.00611915 -0.0026035
0.00611915 -0.00076908 0.0026035
-0.0026035 0.0026035 0.00648732

-0.00132579 0.00443331 -0.00342165
0.00443331 -0.00132579 0.00342165
-0.00342165 0.00342165 0.00375017

-0.00074125 -0.00236354 -0.00222275
-0.00236354 0.00102392 0.00111697
-0.00222275 0.00111697 0.000767818

0.000575511 -0.00432173 -0.00365691
-0.00432173 0.00343668 0.00254499
-0.00365691 0.00254499 -0.000476723

0.00254321 -0.00267255 -0.00337317
-0.00267255 0.00462929 0.00457033
-0.00337317 0.00457033 0.00183841

0.000329915 -0.00382139 0.00181721
-0.00382139 0.00882225 0.00312281
0.00181721 0.00312281 0.00158141

-0.00129011 -0.00118159 0.00460994
-0.00118159 0.0114239 0.00347976
0.00460994 0.00347976 0.000200141

-0.00129011 0.00284954 0.00437623
0.00284954 0.00883928 0.0031198
0.00437623 0.0031198 0.00158317

0.000329915 0.00334346 0.00569292
0.00334346 0.00462357 0.00456706
0.00569292 0.00456706 0.00183787

0.00254321 0.00331851 0.00736
0.00331851 0.00343564 0.00254865
0.00736 0.00254865 -0.000487773

0.000575511 0.00302181 0.00502943
0.00302181 0.00101664 0.00111617
0.00502943 0.00111617 0.000752964

-0.00132579 -0.00443331 0.00342165
-0.00443331 -0.00132579 0.00342165
0.00342165 0.00342165 0.00375017

-0.00076908 -0.00611915 0.0026035
-0.00611915 -0.00076908 0.0026035
0.0026035 0.0026035 0.00648732

0.00210345 -0.00577151 0.000770111
-0.00577151 0.00210345 0.000770111
0.000770111 0.000770111 0.00402696

0.00589908 -0.00439403 -0.000186563
-0.00439403 0.00589908 -0.000186563
-0.000186563 -0.000186563 -0.00348952

0.00960931 -0.00327098 -0.000411744
-0.00327098 0.00960931 -0.000411744
-0.000411744 -0.000411744 -0.0126402

0.0126231 -0.00275571 -0.000122947
-0.00275571 0.0126231 -0.000122947
-0.000122947 -0.000122947 -0.0208843

0.0149846 -0.00283229 0.000166568
-0.00283229 0.0149846 0.000166568
0.000166568 0.000166568 -0.0273642

0.017348 -0.00282019 -0.000313895
-0.00282019 0.017348 -0.000313895
-0.000313895 -0.000313895 -0.0332202

0.0234483 0.00332307 -0.0043653
0.00332307 0.0234483 -0.0043653
-0.0043653 -0.0043653 -0.0458372

-5.73794e-05 -3.61103e-06 0.033437
-3.61103e-06 -1.74045e-05 -0.0234736
0.033437 -0.0234736 -0.0376739

-6.57759e-05 -4.76591e-06 0.0353091
-4.76591e-06 -1.09059e-05 -0.0165053
0.0353091 -0.0165053 -0.0368729

-7.00206e-05 -3.99181e-06 0.036815
-3.99181e-06 -1.02159e-05 -0.0109841
0.036815 -0.0109841 -0.0369495

-7.28273e-05 -1.24925e-06 0.0378633
-1.24925e-06 -1.03313e-05 -0.00555491
0.0378633 -0.00555491 -0.0375685

-7.37947e-05 1.91567e-06 0.0382401
1.91567e-06 -1.03313e-05 4.74826e-16
0.0382401 4.74826e-16 -0.0378292

-7.28271e-05 4.4868e-06 0.0378633
4.4868e-06 -1.02159e-05 0.00555491
0.0378633 0.00555491 -0.0375684

-7.00173e-05 4.95463e-06 0.036815
4.95463e-06 -1.09059e-05 0.0109841
0.036815 0.0109841 -0.0369502

-6.57273e-05 4.42762e-06 0.0353091
4.42762e-06 -1.74045e-05 0.0165053
0.0353091 0.0165053 -0.0368794

-5.7349e-05 -2.77188e-05 0.033437
-2.77188e-05 -6.46281e-05 0.0234736
0.033437 0.0234736 -0.0377211

0.0234483 0.00332307 0.0043653
0.00332307 0.0234483 0.0043653
0.0043653 0.0043653 -0.0458372

0.017348 -0.00282019 0.000313895
-0.00282019 0.017348 0.000313895
0.000313895 0.000313895 -0.0332202

0.0149846 -0.00283229 -0.000166568
-0.00283229 0.0149846 -0.000166568
-0.000166568 -0.000166568 -0.0273642

0.0126231 -0.00275571 0.000122947
-0.00275571 0.0126231 0.000122947
0.000122947 0.000122947 -0.0208843

0.00960931 -0.00327098 0.000411744
-0.00327098 0.00960931 0.000411744
0.000411744 0.000411744 -0.0126402

0.00589908 -0.00439403 0.000186563
-0.00439403 0.00589908 0.000186563
0.000186563 0.000186563 -0.00348952

0.00210345 -0.00577151 -0.000770111
-0.00577151 0.00210345 -0.000770111
-0.000770111 -0.000770111 0.00402696

-0.00076908 -0.00611915 -0.0026035
-0.00611915 -0.00076908 -0.0026035
-0.0026035 -0.0026035 0.00648732

-0.00132579 -0.00443331 -0.00342165
-0.00443331 -0.00132579 -0.00342165
-0.00342165 -0.00342165 0.00375017

0.00102392 0.00236354 -0.00111697
0.00236354 -0.00074125 -0.00222275
-0.00111697 -0.00222275 0.000767818

0.00343668 0.00432173 -0.00254499
0.00432173 0.000575511 -0.00365691
-0.00254499 -0.00365691 -0.000476723

0.00462929 0.00267255 -0.00457033
0.00267255 0.00254321 -0.00337317
-0.00457033 -0.00337317 0.00183841

0.00882225 0.00382139 -0.00312281
0.00382139 0.000329915 0.00181721
-0.00312281 0.00181721 0.00158141

0.0114239 0.00118159 -0.00347976
0.00118159 -0.00129011 0.00460994
-0.00347976 0.00460994 0.000200141

0.00883928 -0.00284954 -0.0031198
-0.00284954 -0.00129011 0.00437623
-0.0031198 0.00437623 0.00158317

0.00462357 -0.00334346 -0.00456706
-0.00334346 0.000329915 0.00569292
-0.00456706 0.00569292 0.00183787

0.00343564 -0.00331851 -0.00254865
-0.00331851 0.00254321 0.00736
-0.00254865 0.00736 -0.000487773

0.00101664 -0.00302181 -0.00111617
-0.00302181 0.000575511 0.00502943
-0.00111617 0.00502943 0.000752964

-6.46281e-05 -2.77188e-05 0.0234736
-2.77188e-05 -5.7349e-05 0.033437
0.0234736 0.033437 -0.0377211

-1.74045e-05 4.42762e-06 0.0165053
4.42762e-06 -6.57273e-05 0.0353091
0.0165053 0.0353091 -0.0368794

-1.09059e-05 4.95463e-06 0.0109841
4.95463e-06 -7.00173e-05 0.036815
0.0109841 0.036815 -0.0369502

-1.02159e-05 4.4868e-06 0.00555491
4.4868e-06 -7.28271e-05 0.0378633
0.00555491 0.0378633 -0.0375684

-1.03313e-05 1.91567e-06 4.01155e-17
1.91567e-06 -7.37947e-05 0.0382401
4.01155e-17 0.0382401 -0.0378292

-1.03313e-05 -1.24925e-06 -0.00555491
-1.24925e-06 -7.28273e-05 0.0378633
-0.00555491 0.0378633 -0.0375685

-1.02159e-05 -3.99181e-06 -0.0109841
-3.99181e-06 -7.00206e-05 0.036815
-0.0109841 0.036815 -0.0369495

-1.09059e-05 -4.76591e-06 -0.0165053
-4.76591e-06 -6.57759e-05 0.0353091
-0.0165053 0.0353091 -0.0368729

-1.74045e-05 -3.61103e-06 -0.0234736
-3.61103e-06 -5.73794e-05 0.033437
-0.0234736 0.033437 -0.0376739

0.0234483 -0.00332307 -0.0043653
-0.00332307 0.0234483 0.0043653
-0.0043653 0.0043653 -0.0458372

0.017348 0.00282019 -0.000313895
0.00282019 0.017348 0.000313895
-0.000313895 0.000313895 -0.0332202

0.0149846 0.00283229 0.000166568
0.00283229 0.0149846 -0.000166568
0.000166568 -0.000166568 -0.0273642

0.0126231 0.00275571 -0.000122947
0.00275571 0.0126231 0.000122947
-0.000122947 0.000122947 -0.0208843

0.00960931 0.00327098 -0.000411744
0.00327098 0.00960931 0.000411744
-0.000411744 0.000411744 -0.0126402

0.00589908 0.00439403 -0.000186563
0.00439403 0.00589908 0.000186563
-0.000186563 0.000186563 -0.00348952

0.00210345 0.00577151 0.000770111
0.00577151 0.00210345 -0.000770111
0.000770111 -0.000770111 0.00402696

-0.00076908 0.00611915 0.0026035
0.00611915 -0.00076908 -0.0026035
0.0026035 -0.0026035 0.00648732

-0.00132579 0.00443331 0.00342165
0.00443331 -0.00132579 -0.00342165
0.00342165 -0.00342165 0.00375017

0.000575511 -0.00302181 0.00502943
-0.00302181 0.00101664 -0.00111617
0.00502943 -0.00111617 0.000752964

0.00254321 -0.00331851 0.00736
-0.00331851 0.00343564 -0.00254865
0.00736 -0.00254865 -0.000487773

0.000329915 -0.00334346 0.00569292
-0.00334346 0.00462357 -0.00456706
0.00569292 -0.00456706 0.00183787

-0.00129011 -0.00284954 0.00437623
-0.00284954 0.00883928 -0.0031198
0.00437623 -0.0031198 0.00158317

-0.00129011 0.00118159 0.00460994
0.00118159 0.0114239 -0.00347976
0.00460994 -0.00347976 0.000200141

0.000329915 0.00382139 0.00181721
0.00382139 0.00882225 -0.00312281
0.00181721 -0.00312281 0.00158141

0.00254321 0.00267255 -0.00337317
0.00267255 0.00462929 -0.00457033
-0.00337317 -0.00457033 0.00183841

0.000575511 0.00432173 -0.00365691
0.00432173 0.00343668 -0.00254499
-0.00365691 -0.00254499 -0.000476723

-0.00074125 0.00236354 -0.00222275
0.00236354 0.00102392 -0.00111697
-0.00222275 -0.00111697 0.000767818

-5.7349e-05 2.77188e-05 -0.033437
2.77188e-05 -6.46281e-05 0.0234736
-0.033437 0.0234736 -0.0377211

-6.57273e-05 -4.42762e-06 -0.0353091
-4.42762e-06 -1.74045e-05 0.0165053
-0.0353091 0.0165053 -0.0368794

-7.00173e-05 -4.95463e-06 -0.036815
-4.95463e-06 -1.09059e-05 0.0109841
-0.036815 0.0109841 -0.0369502

-7.28271e-05 -4.4868e-06 -0.0378633
-4.4868e-06 -1.02159e-05 0.00555491
-0.0378633 0.00555491 -0.0375684

-7.37947e-05 -1.91567e-06 -0.0382401
-1.91567e-06 -1.03313e-05 3.97035e-16
-0.0382401 3.97035e-16 -0.0378292

-7.28273e-05 1.24925e-06 -0.0378633
1.24925e-06 -1.03313e-05 -0.00555491
-0.0378633 -0.00555491 -0.0375685

-7.00206e-05 3.99181e-06 -0.036815
3.99181e-06 -1.02159e-05 -0.0109841
-0.036815 -0.0109841 -0.0369495

-6.57759e-05 4.76591e-06 -0.0353091
4.76591e-06 -1.09059e-05 -0.0165053
-0.0353091 -0.0165053 -0.0368729

-5.73794e-05 3.61103e-06 -0.033437
3.61103e-06 -1.74045e-05 -0.0234736
-0.033437 -0.0234736 -0.0376739

0.00101664 0.00302181 0.00111617
0.00302181 0.000575511 0.00502943
0.00111617 0.00502943 0.000752964

0.00343564 0.00331851 0.00254865
0.00331851 0.00254321 0.00736
0.00254865 0.00736 -0.000487773

0.00462357 0.00334346 0.00456706
0.00334346 0.000329915 0.00569292
0.00456706 0.00569292 0.00183787

0.00883928 0.00284954 0.0031198
0.00284954 -0.00129011 0.00437623
0.0031198 0.00437623 0.00158317

0.0114239 -0.00118159 0.00347976
-0.00118159 -0.00129011 0.00460994
0.00347976 0.00460994 0.000200141

0.00882225 -0.00382139 0.00312281
-0.00382139 0.000329915 0.00181721
0.00312281 0.00181721 0.00158141

0.00462929 -0.00267255 0.00457033
-0.00267255 0.00254321 -0.00337317
0.00457033 -0.00337317 0.00183841

0.00343668 -0.00432173 0.00254499
-0.00432173 0.000575511 -0.00365691
0.00254499 -0.00365691 -0.000476723

0.00102392 -0.00236354 0.00111697
-0.00236354 -0.00074125 -0.00222275
0.00111697 -0.00222275 0.000767818

0.0140385 -0.0012241 -0.0139489
-0.0012241 0.0216088 -0.00739449
-0.0139489 -0.00739449 -0.0458349

0.0111033 -0.000955693 -0.0122535
-0.000955693 0.023701 -0.00657769
-0.0122535 -0.00657769 -0.0429665

0.0109139 -0.000498004 -0.0089339
-0.000498004 0.0244484 -0.00705437
-0.0089339 -0.00705437 -0.0435297

0.0111652 -3.11491e-05 -0.00459307
-3.11491e-05 0.0248732 -0.00742089
-0.00459307 -0.00742089 -0.0443696

0.0111652 0.000388373 0.000115548
0.000388373 0.0250123 -0.00757057
0.000115548 -0.00757057 -0.044784

0.0109139 0.00072229 0.0047397
0.00072229 0.0248732 -0.00742104
0.0047397 -0.00742104 -0.0443689

0.0111033 0.000961441 0.00862035
0.000961441 0.0244483 -0.00705463
0.00862035 -0.00705463 -0.0435282

0.0140385 0.00131927 0.0117355
0.00131927 0.0237008 -0.00657804
0.0117355 -0.00657804 -0.0429645

0.0234483 -0.00240348 0.00743292
-0.00240348 0.0216091 -0.00739605
0.00743292 -0.00739605 -0.0458379

0.0184818 -0.00134178 -0.00664168
-0.00134178 0.020027 -1.02709e-05
-0.00664168 -1.02709e-05 -0.0388678

0.0183991 -0.00170833 -0.00879864
-0.00170833 0.020031 -0.000945299
-0.00879864 -0.000945299 -0.0412503

0.0193401 -0.00094771 -0.00725636
-0.00094771 0.0207935 -0.00116169
-0.00725636 -0.00116169 -0.0433796

0.0201621 -0.000147083 -0.00386381
-0.000147083 0.0211061 -0.00149303
-0.00386381 -0.00149303 -0.0451938

0.0201621 0.000617064 0.000309139
0.000617064 0.021218 -0.00161369
0.000309139 -0.00161369 -0.045878

0.0193401 0.001187 0.00419675
0.001187 0.0211061 -0.00149323
0.00419675 -0.00149323 -0.0451931

0.0183991 0.00155067 0.00678115
0.00155067 0.0207934 -0.00116196
0.00678115 -0.00116196 -0.043378

0.0184818 0.00066137 0.0065279
0.00066137 0.020031 -0.000945339
0.0065279 -0.000945339 -0.0412494

0.017348 0.00148478 0.00150521
0.00148478 0.0200259 -9.46832e-06
0.00150521 -9.46832e-06 -0.0388703

0.0187124 -0.00245632 -0.00455444
-0.00245632 0.0175631 0.000538418
-0.00455444 0.000538418 -0.0336878

0.0224439 -0.00210056 -0.00709227
-0.00210056 0.018241 1.65337e-05
-0.00709227 1.65337e-05 -0.0392837

0.0254806 -0.00135494 -0.00645098
-0.00135494 0.0185582 -0.000803016
-0.00645098 -0.000803016 -0.0438994

0.0272976 -0.000234263 -0.00340838
-0.000234263 0.018773 -0.00136433
-0.00340838 -0.00136433 -0.0470226

0.0272976 0.000844605 0.000641152
0.000844605 0.0188278 -0.00157978
0.000641152 -0.00157978 -0.0481319

0.0254806 0.00166006 0.00428986
0.00166006 0.0187731 -0.00136447
0.00428986 -0.00136447 -0.0470227

0.0224439 0.00188529 0.00612523
0.00188529 0.0185581 -0.000803082
0.00612523 -0.000803082 -0.0438995

0.0187124 0.00161666 0.0049424
0.00161666 0.0182408 1.68357e-05
0.0049424 1.68357e-05 -0.0392842

0.0149846 0.0015468 0.00102565
0.0015468 0.0175623 0.000538629
0.00102565 0.000538629 -0.0336886

0.017953 -0.00333344 -0.00484673
-0.00333344 0.015216 -4.83772e-05
-0.00484673 -4.83772e-05 -0.0279863

0.024392 -0.00315463 -0.00735054
-0.00315463 0.0158872 -0.000912156
-0.00735054 -0.000912156 -0.0353829

0.0298181 -0.00199407 -0.00656937
-0.00199407 0.0160249 -0.00232533
-0.00656937 -0.00232533 -0.0418659

0.0328485 -0.000406115 -0.00323116
-0.000406115 0.0159748 -0.00337739
-0.00323116 -0.00337739 -0.0460966

0.0328485 0.00117873 0.00119079
0.00117873 0.0159376 -0.00374681
0.00119079 -0.00374681 -0.0475301

0.0298181 0.00237568 0.00511191
0.00237568 0.0159749 -0.00337748
0.00511191 -0.00337748 -0.046098

0.024392 0.0028789 0.00698499
0.0028789 0.0160249 -0.00232518
0.00698499 -0.00232518 -0.041868

0.017953 0.00239794 0.00567577
0.00239794 0.0158869 -0.000911667
0.00567577 -0.000911667 -0.0353837

0.0126231 0.00146299 0.00164454
0.00146299 0.0152153 -4.82503e-05
0.00164454 -4.82503e-05 -0.0279858

0.0163275 -0.00475009 -0.00569412
-0.00475009 0.0124941 -0.000661935
-0.00569412 -0.000661935 -0.020762

0.0251512 -0.00489261 -0.00818079
-0.00489261 0.0127953 -0.0021957
-0.00818079 -0.0021957 -0.0288871

0.0327506 -0.00316222 -0.00689317
-0.00316222 0.0124106 -0.0045512
-0.00689317 -0.0045512 -0.0360733

0.0369395 -0.000750602 -0.00297037
-0.000750602 0.0118901 -0.00614674
-0.00297037 -0.00614674 -0.0405601

0.0369395 0.00165504 0.00191839
0.00165504 0.0116606 -0.00669922
0.00191839 -0.00669922 -0.0420055

0.0327506 0.00359381 0.00626825
0.00359381 0.0118903 -0.00614694
0.00626825 -0.00614694 -0.0405624

0.0251512 0.00452231 0.0084391
0.00452231 0.0124107 -0.00455108
0.0084391 -0.00455108 -0.0360772

0.0163275 0.00362075 0.00693615
0.00362075 0.0127949 -0.00219488
0.00693615 -0.00219488 -0.0288877

0.00960931 0.00183324 0.0022872
0.00183324 0.0124932 -0.000661327
0.0022872 -0.000661327 -0.0207616

0.0138891 -0.00690928 -0.00559322
-0.00690928 0.00915302 -0.000781481
-0.00559322 -0.000781481 -0.012354

0.0246767 -0.0075776 -0.00801302
-0.0075776 0.00851194 -0.0029571
-0.00801302 -0.0029571 -0.0195485

0.0340192 -0.00491895 -0.00623809
-0.00491895 0.00696532 -0.00636964
-0.00623809 -0.00636964 -0.0253927

0.0390477 -0.00133493 -0.00207755
-0.00133493 0.0055557 -0.00827076
-0.00207755 -0.00827076 -0.028875

0.0390477 0.00221828 0.00269318
0.00221828 0.00502664 -0.00896364
0.00269318 -0.00896364 -0.0299946

0.0340192 0.00526876 0.00698919
0.00526876 0.00555581 -0.00827119
0.00698919 -0.00827119 -0.0288766

0.0246767 0.00705677 0.0091822
0.00705677 0.0069654 -0.00637008
0.0091822 -0.00637008 -0.0253966

0.0138891 0.00556386 0.007209
0.00556386 0.00851151 -0.0029558
0.007209 -0.0029558 -0.0195491

0.00589908 0.00277286 0.0021093
0.00277286 0.0091518 -0.000780056
0.0021093 -0.000780056 -0.0123556

0.0106999 -0.00934949 -0.00341395
-0.00934949 0.00548927 8.37205e-05
-0.00341395 8.37205e-05 -0.00430902

0.0223778 -0.0108275 -0.00556204
-0.0108275 0.00311148 -0.00216674
-0.00556204 -0.00216674 -0.00838346

0.0325283 -0.0067543 -0.00356323
-0.0067543 -0.000880497 -0.00570637
-0.00356323 -0.00570637 -0.0101589

0.0378149 -0.00205917 8.2768e-05
-0.00205917 -0.00365641 -0.0073656
8.2768e-05 -0.0073656 -0.011855

0.0378149 0.00264104 0.00337515
0.00264104 -0.00432624 -0.00778897
0.00337515 -0.00778897 -0.0124734

0.0325283 0.00682112 0.00623303
0.00682112 -0.0036576 -0.00736551
0.00623303 -0.00736551 -0.0118537

0.0223778 0.0100831 0.00784054
0.0100831 -0.000882112 -0.00570668
0.00784054 -0.00570668 -0.0101579

0.0106999 0.00789137 0.00541382
0.00789137 0.00311282 -0.00216625
0.00541382 -0.00216625 -0.00838471

0.00210345 0.00408443 0.000687059
0.00408443 0.00548903 8.43692e-05
0.000687059 8.43692e-05 -0.00431283

0.00671526 -0.0103236 0.00166483
-0.0103236 0.00230741 0.00171176
0.00166483 0.00171176 0.000507036

0.0178222 -0.0120513 0.00103931
-0.0120513 -0.00237538 0.000978342
0.00103931 0.000978342 -0.000102011

0.0271919 -0.00733298 0.00199532
-0.00733298 -0.01158 -0.00110478
0.00199532 -0.00110478 0.00149018

0.0309085 -0.00228262 0.00325648
-0.00228262 -0.0145469 -0.00107065
0.00325648 -0.00107065 0.00150333

0.0309085 0.00225733 0.00381392
0.00225733 -0.0140895 -0.00164094
0.00381392 -0.00164094 0.00108933

0.0271919 0.00716166 0.00386696
0.00716166 -0.0145491 -0.00106861
0.00386696 -0.00106861 0.00150609

0.0178222 0.0113197 0.00253839
0.0113197 -0.0115942 -0.00109904
0.00253839 -0.00109904 0.0014954

0.00671526 0.00890345 -2.12409e-05
0.00890345 -0.00236414 0.000973257
-2.12409e-05 0.000973257 -9.70192e-05

-0.00076908 0.00458646 -0.00231613
0.00458646 0.00231122 0.00170722
-0.00231613 0.00170722 0.000507114

0.00343179 -0.00731793 0.0056999
-0.00731793 0.000532622 0.00350266
0.0056999 0.00350266 0.000752964

0.0106944 -0.00953906 0.00628568
-0.00953906 -0.0039135 0.00560563
0.00628568 0.00560563 -0.000487773

0.0155309 -0.00510489 0.00591154
-0.00510489 -0.0154668 0.00877874
0.00591154 0.00877874 0.00183787

0.0168524 -0.000572643 0.00515285
-0.000572643 -0.0146144 0.00902826
0.00515285 0.00902826 0.00158317

0.0168524 0.000894799 0.00400353
0.000894799 -0.0127662 0.00811368
0.00400353 0.00811368 0.000200141

0.0155309 0.0035244 0.00177937
0.0035244 -0.0146223 0.00903323
0.00177937 0.00903323 0.00158141

0.0106944 0.00871109 -0.0021213
0.00871109 -0.0154752 0.00879629
-0.0021213 0.00879629 0.00183841

0.00343179 0.00710657 -0.00421613
0.00710657 -0.00390464 0.00558979
-0.00421613 0.00558979 -0.000476723

-0.00132579 0.0035106 -0.00370286
0.0035106 0.000539673 0.00349577
-0.00370286 0.00349577 0.000767818

0.0216088 0.0012241 0.00739449
0.0012241 0.0140385 -0.0139489
0.00739449 -0.0139489 -0.0458349

0.023701 0.000955693 0.00657769
0.000955693 0.0111033 -0.0122535
0.00657769 -0.0122535 -0.0429665

0.0244484 0.000498004 0.00705437
0.000498004 0.0109139 -0.0089339
0.00705437 -0.0089339 -0.0435297

0.0248732 3.11491e-05 0.00742089
3.11491e-05 0.0111652 -0.00459307
0.00742089 -0.00459307 -0.0443696

0.0250123 -0.000388373 0.00757057
-0.000388373 0.0111652 0.000115548
0.00757057 0.000115548 -0.044784

0.0248732 -0.00072229 0.00742104
-0.00072229 0.0109139 0.0047397
0.00742104 0.0047397 -0.0443689

0.0244483 -0.000961441 0.00705463
-0.000961441 0.0111033 0.00862035
0.00705463 0.00862035 -0.0435282

0.0237008 -0.00131927 0.00657804
-0.00131927 0.0140385 0.0117355
0.00657804 0.0117355 -0.0429645

0.0216091 0.00240348 0.00739605
0.00240348 0.0234483 0.00743292
0.00739605 0.00743292 -0.0458379

0.020027 0.00134178 1.02709e-05
0.00134178 0.0184818 -0.00664168
1.02709e-05 -0.00664168 -0.0388678

0.020031 0.00170833 0.000945299
0.00170833 0.0183991 -0.00879864
0.000945299 -0.00879864 -0.0412503

0.0207935 0.00094771 0.00116169
0.00094771 0.0193401 -0.00725636
0.00116169 -0.00725636 -0.0433796

0.0211061 0.000147083 0.00149303
0.000147083 0.0201621 -0.00386381
0.00149303 -0.00386381 -0.0451938

0.021218 -0.000617064 0.00161369
-0.000617064 0.0201621 0.000309139
0.00161369 0.000309139 -0.045878

0.0211061 -0.001187 0.00149323
-0.001187 0.0193401 0.00419675
0.00149323 0.00419675 -0.0451931

0.0207934 -0.00155067 0.00116196
-0.00155067 0.0183991 0.00678115
0.00116196 0.00678115 -0.043378

0.020031 -0.00066137 0.000945339
-0.00066137 0.0184818 0.0065279
0.000945339 0.0065279 -0.0412494

0.0200259 -0.00148478 9.46832e-06
-0.00148478 0.017348 0.00150521
9.46832e-06 0.00150521 -0.0388703

0.0175631 0.00245632 -0.000538418
0.00245632 0.0187124 -0.00455444
-0.000538418 -0.00455444 -0.0336878

0.018241 0.00210056 -1.65337e-05
0.00210056 0.0224439 -0.00709227
-1.65337e-05 -0.00709227 -0.0392837

0.0185582 0.00135494 0.000803016
0.00135494 0.0254806 -0.00645098
0.000803016 -0.00645098 -0.0438994

0.018773 0.000234263 0.00136433
0.000234263 0.0272976 -0.00340838
0.00136433 -0.00340838 -0.0470226

0.0188278 -0.000844605 0.00157978
-0.000844605 0.0272976 0.000641152
0.00157978 0.000641152 -0.0481319

0.0187731 -0.00166006 0.00136447
-0.00166006 0.0254806 0.00428986
0.00136447 0.00428986 -0.0470227

0.0185581 -0.00188529 0.000803082
-0.00188529 0.0224439 0.00612523
0.000803082 0.00612523 -0.0438995

0.0182408 -0.00161666 -1.68357e-05
-0.00161666 0.0187124 0.0049424
-1.68357e-05 0.0049424 -0.0392842

0.0175623 -0.0015468 -0.000538629
-0.0015468 0.0149846 0.00102565
-0.000538629 0.00102565 -0.0336886

0.015216 0.00333344 4.83772e-05
0.00333344 0.017953 -0.00484673
4.83772e-05 -0.00484673 -0.0279863

0.0158872 0.00315463 0.000912156
0.00315463 0.024392 -0.00735054
0.000912156 -0.00735054 -0.0353829

0.0160249 0.00199407 0.00232533
0.00199407 0.0298181 -0.00656937
0.00232533 -0.00656937 -0.0418659

0.0159748 0.000406115 0.00337739
0.000406115 0.0328485 -0.00323116
0.00337739 -0.00323116 -0.0460966

0.0159376 -0.00117873 0.00374681
-0.00117873 0.0328485 0.00119079
0.00374681 0.00119079 -0.0475301

0.0159749 -0.00237568 0.00337748
-0.00237568 0.0298181 0.00511191
0.00337748 0.00511191 -0.046098

0.0160249 -0.0028789 0.00232518
-0.0028789 0.024392 0.00698499
0.00232518 0.00698499 -0.041868

0.0158869 -0.00239794 0.000911667
-0.00239794 0.017953 0.00567577
0.000911667 0.00567577 -0.0353837

0.0152153 -0.00146299 4.82503e-05
-0.00146299 0.0126231 0.00164454
4.82503e-05 0.00164454 -0.0279858

0.0124941 0.00475009 0.000661935
0.00475009 0.0163275 -0.00569412
0.000661935 -0.00569412 -0.020762

0.0127953 0.00489261 0.0021957
0.00489261 0.0251512 -0.00818079
0.0021957 -0.00818079 -0.0288871

0.0124106 0.00316222 0.0045512
0.00316222 0.0327506 -0.00689317
0.0045512 -0.00689317 -0.0360733

0.0118901 0.000750602 0.00614674
0.000750602 0.0369395 -0.00297037
0.00614674 -0.00297037 -0.0405601

0.0116606 -0.00165504 0.00669922
-0.00165504 0.0369395 0.00191839
0.00669922 0.00191839 -0.0420055

0.0118903 -0.00359381 0.00614694
-0.00359381 0.0327506 0.00626825
0.00614694 0.00626825 -0.0405624

0.0124107 -0.00452231 0.00455108
-0.00452231 0.0251512 0.0084391
0.00455108 0.0084391 -0.0360772

0.0127949 -0.00362075 0.00219488
-0.00362075 0.0163275 0.00693615
0.00219488 0.00693615 -0.0288877

0.0124932 -0.00183324 0.000661327
-0.00183324 0.00960931 0.0022872
0.000661327 0.0022872 -0.0207616

0.00915302 0.00690928 0.000781481
0.00690928 0.0138891 -0.00559322
0.000781481 -0.00559322 -0.012354

0.00851194 0.0075776 0.0029571
0.0075776 0.0246767 -0.00801302
0.0029571 -0.00801302 -0.0195485

0.00696532 0.00491895 0.00636964
0.00491895 0.0340192 -0.00623809
0.00636964 -0.00623809 -0.0253927

0.0055557 0.00133493 0.00827076
0.00133493 0.0390477 -0.00207755
0.00827076 -0.00207755 -0.028875

0.00502664 -0.00221828 0.00896364
-0.00221828 0.0390477 0.00269318
0.00896364 0.00269318 -0.0299946

0.00555581 -0.00526876 0.00827119
-0.00526876 0.0340192 0.00698919
0.00827119 0.00698919 -0.0288766

0.0069654 -0.00705677 0.00637008
-0.00705677 0.0246767 0.0091822
0.00637008 0.0091822 -0.0253966

0.00851151 -0.00556386 0.0029558
-0.00556386 0.0138891 0.007209
0.0029558 0.007209 -0.0195491

0.0091518 -0.00277286 0.000780056
-0.00277286 0.00589908 0.0021093
0.000780056 0.0021093 -0.0123556

0.00548927 0.00934949 -8.37205e-05
0.00934949 0.0106999 -0.00341395
-8.37205e-05 -0.00341395 -0.00430902

0.00311148 0.0108275 0.00216674
0.0108275 0.0223778 -0.00556204
0.00216674 -0.00556204 -0.00838346

-0.000880497 0.0067543 0.00570637
0.0067543 0.0325283 -0.00356323
0.00570637 -0.00356323 -0.0101589

-0.00365641 0.00205917 0.0073656
0.00205917 0.0378149 8.2768e-05
0.0073656 8.2768e-05 -0.011855

-0.00432624 -0.00264104 0.00778897
-0.00264104 0.0378149 0.00337515
0.00778897 0.00337515 -0.0124734

-0.0036576 -0.00682112 0.00736551
-0.00682112 0.0325283 0.00623303
0.00736551 0.00623303 -0.0118537

-0.000882112 -0.0100831 0.00570668
-0.0100831 0.0223778 0.00784054
0.00570668 0.00784054 -0.0101579

0.00311282 -0.00789137 0.00216625
-0.00789137 0.0106999 0.00541382
0.00216625 0.00541382 -0.00838471

0.00548903 -0.00408443 -8.43692e-05
-0.00408443 0.00210345 0.000687059
-8.43692e-05 0.000687059 -0.00431283

0.00230741 0.0103236 -0.00171176
0.0103236 0.00671526 0.00166483
-0.00171176 0.00166483 0.000507036

-0.00237538 0.0120513 -0.000978342
0.0120513 0.0178222 0.00103931
-0.000978342 0.00103931 -0.000102011

-0.01158 0.00733298 0.00110478
0.00733298 0.0271919 0.00199532
0.00110478 0.00199532 0.00149018

-0.0145469 0.00228262 0.00107065
0.00228262 0.0309085 0.00325648
0.00107065 0.00325648 0.00150333

-0.0140895 -0.00225733 0.00164094
-0.00225733 0.0309085 0.00381392
0.00164094 0.00381392 0.00108933

-0.0145491 -0.00716166 0.00106861
-0.00716166 0.0271919 0.00386696
0.00106861 0.00386696 0.00150609

-0.0115942 -0.0113197 0.00109904
-0.0113197 0.0178222 0.00253839
0.00109904 0.00253839 0.0014954

-0.00236414 -0.00890345 -0.000973257
-0.00890345 0.00671526 -2.12409e-05
-0.000973257 -2.12409e-05 -9.70192e-05

0.00231122 -0.00458646 -0.00170722
-0.00458646 -0.00076908 -0.00231613
-0.00170722 -0.00231613 0.000507114

0.000532622 0.00731793 -0.00350266
0.00731793 0.00343179 0.0056999
-0.00350266 0.0056999 0.000752964

-0.0039135 0.00953906 -0.00560563
0.00953906 0.0106944 0.00628568
-0.00560563 0.00628568 -0.000487773

-0.0154668 0.00510489 -0.00877874
0.00510489 0.0155309 0.00591154
-0.00877874 0.00591154 0.00183787

-0.0146144 0.000572643 -0.00902826
0.000572643 0.0168524 0.00515285
-0.00902826 0.00515285 0.00158317

-0.0127662 -0.000894799 -0.00811368
-0.000894799 0.0168524 0.00400353
-0.00811368 0.00400353 0.000200141

-0.0146223 -0.0035244 -0.00903323
-0.0035244 0.0155309 0.00177937
-0.00903323 0.00177937 0.00158141

-0.0154752 -0.00871109 -0.00879629
-0.00871109 0.0106944 -0.0021213
-0.00879629 -0.0021213 0.00183841

-0.00390464 -0.00710657 -0.00558979
-0.00710657 0.00343179 -0.00421613
-0.00558979 -0.00421613 -0.000476723

0.000539673 -0.0035106 -0.00349577
-0.0035106 -0.00132579 -0.00370286
-0.00349577 -0.00370286 0.000767818

0.0234483 0.00240348 0.00743292
0.00240348 0.0216091 0.00739605
0.00743292 0.00739605 -0.0458379

0.0140385 -0.00131927 0.0117355
-0.00131927 0.0237008 0.00657804
0.0117355 0.00657804 -0.0429645

0.0111033 -0.000961441 0.00862035
-0.000961441 0.0244483 0.00705463
0.00862035 0.00705463 -0.0435282

0.0109139 -0.00072229 0.0047397
-0.00072229 0.0248732 0.00742104
0.0047397 0.00742104 -0.0443689

0.0111652 -0.000388373 0.000115548
-0.000388373 0.0250123 0.00757057
0.000115548 0.00757057 -0.044784

0.0111652 3.11491e-05 -0.00459307
3.11491e-05 0.0248732 0.00742089
-0.00459307 0.00742089 -0.0443696

0.0109139 0.000498004 -0.0089339
0.000498004 0.0244484 0.00705437
-0.0089339 0.00705437 -0.0435297

0.0111033 0.000955693 -0.0122535
0.000955693 0.023701 0.00657769
-0.0122535 0.00657769 -0.0429665

0.0140385 0.0012241 -0.0139489
0.0012241 0.0216088 0.00739449
-0.0139489 0.00739449 -0.0458349

0.017348 -0.00148478 0.00150521
-0.00148478 0.0200259 9.46832e-06
0.00150521 9.46832e-06 -0.0388703

0.0184818 -0.00066137 0.0065279
-0.00066137 0.020031 0.000945339
0.0065279 0.000945339 -0.0412494

0.0183991 -0.00155067 0.00678115
-0.00155067 0.0207934 0.00116196
0.00678115 0.00116196 -0.043378

0.0193401 -0.001187 0.00419675
-0.001187 0.0211061 0.00149323
0.00419675 0.00149323 -0.0451931

0.0201621 -0.000617064 0.000309139
-0.000617064 0.021218 0.00161369
0.000309139 0.00161369 -0.045878

0.0201621 0.000147083 -0.00386381
0.000147083 0.0211061 0.00149303
-0.00386381 0.00149303 -0.0451938

0.0193401 0.00094771 -0.00725636
0.00094771 0.0207935 0.00116169
-0.00725636 0.00116169 -0.0433796

0.0183991 0.00170833 -0.00879864
0.00170833 0.020031 0.000945299
-0.00879864 0.000945299 -0.0412503

0.0184818 0.00134178 -0.00664168
0.00134178 0.020027 1.02709e-05
-0.00664168 1.02709e-05 -0.0388678

0.0149846 -0.0015468 0.00102565
-0.0015468 0.0175623 -0.000538629
0.00102565 -0.000538629 -0.0336886

0.0187124 -0.00161666 0.0049424
-0.00161666 0.0182408 -1.68357e-05
0.0049424 -1.68357e-05 -0.0392842

0.0224439 -0.00188529 0.00612523
-0.00188529 0.0185581 0.000803082
0.00612523 0.000803082 -0.0438995

0.0254806 -0.00166006 0.00428986
-0.00166006 0.0187731 0.00136447
0.00428986 0.00136447 -0.0470227

0.0272976 -0.000844605 0.000641152
-0.000844605 0.0188278 0.00157978
0.000641152 0.00157978 -0.0481319

0.0272976 0.000234263 -0.00340838
0.000234263 0.018773 0.00136433
-0.00340838 0.00136433 -0.0470226

0.0254806 0.00135494 -0.00645098
0.00135494 0.0185582 0.000803016
-0.00645098 0.000803016 -0.0438994

0.0224439 0.00210056 -0.00709227
0.00210056 0.018241 -1.65337e-05
-0.00709227 -1.65337e-05 -0.0392837

0.0187124 0.00245632 -0.00455444
0.00245632 0.0175631 -0.000538418
-0.00455444 -0.000538418 -0.0336878

0.0126231 -0.00146299 0.00164454
-0.00146299 0.0152153 4.82503e-05
0.00164454 4.82503e-05 -0.0279858

0.017953 -0.00239794 0.00567577
-0.00239794 0.0158869 0.000911667
0.00567577 0.000911667 -0.0353837

0.024392 -0.0028789 0.00698499
-0.0028789 0.0160249 0.00232518
0.00698499 0.00232518 -0.041868

0.0298181 -0.00237568 0.00511191
-0.00237568 0.0159749 0.00337748
0.00511191 0.00337748 -0.046098

0.0328485 -0.00117873 0.00119079
-0.00117873 0.0159376 0.00374681
0.00119079 0.00374681 -0.0475301

0.0328485 0.000406115 -0.00323116
0.000406115 0.0159748 0.00337739
-0.00323116 0.00337739 -0.0460966

0.0298181 0.00199407 -0.00656937
0.00199407 0.0160249 0.00232533
-0.00656937 0.00232533 -0.0418659

0.024392 0.00315463 -0.00735054
0.00315463 0.0158872 0.000912156
-0.00735054 0.000912156 -0.0353829

0.017953 0.00333344 -0.00484673
0.00333344 0.015216 4.83772e-05
-0.00484673 4.83772e-05 -0.0279863

0.00960931 -0.00183324 0.0022872
-0.00183324 0.0124932 0.000661327
0.0022872 0.000661327 -0.0207616

0.0163275 -0.00362075 0.00693615
-0.00362075 0.0127949 0.00219488
0.00693615 0.00219488 -0.0288877

0.0251512 -0.00452231 0.0084391
-0.00452231 0.0124107 0.00455108
0.0084391 0.00455108 -0.0360772

0.0327506 -0.00359381 0.00626825
-0.00359381 0.0118903 0.00614694
0.00626825 0.00614694 -0.0405624

0.0369395 -0.00165504 0.00191839
-0.00165504 0.0116606 0.00669922
0.00191839 0.00669922 -0.0420055

0.0369395 0.000750602 -0.00297037
0.000750602 0.0118901 0.00614674
-0.00297037 0.00614674 -0.0405601

0.0327506 0.00316222 -0.00689317
0.00316222 0.0124106 0.0045512
-0.00689317 0.0045512 -0.0360733

0.0251512 0.00489261 -0.00818079
0.00489261 0.0127953 0.0021957
-0.00818079 0.0021957 -0.0288871

0.0163275 0.00475009 -0.00569412
0.00475009 0.0124941 0.000661935
-0.00569412 0.000661935 -0.020762

0.00589908 -0.00277286 0.0021093
-0.00277286 0.0091518 0.000780056
0.0021093 0.000780056 -0.0123556

0.0138891 -0.00556386 0.007209
-0.00556386 0.00851151 0.0029558
0.007209 0.0029558 -0.0195491

0.0246767 -0.00705677 0.0091822
-0.00705677 0.0069654 0.00637008
0.0091822 0.00637008 -0.0253966

0.0340192 -0.00526876 0.00698919
-0.00526876 0.00555581 0.00827119
0.00698919 0.00827119 -0.0288766

0.0390477 -0.00221828 0.00269318
-0.00221828 0.00502664 0.00896364
0.00269318 0.00896364 -0.0299946

0.0390477 0.00133493 -0.00207755
0.00133493 0.0055557 0.00827076
-0.00207755 0.00827076 -0.028875

0.0340192 0.00491895 -0.00623809
0.00491895 0.00696532 0.00636964
-0.00623809 0.00636964 -0.0253927

0.0246767 0.0075776 -0.00801302
0.0075776 0.00851194 0.0029571
-0.00801302 0.0029571 -0.0195485

0.0138891 0.00690928 -0.00559322
0.00690928 0.00915302 0.000781481
-0.00559322 0.000781481 -0.012354

0.00210345 -0.00408443 0.000687059
-0.00408443 0.00548903 -8.43692e-05
0.000687059 -8.43692e-05 -0.00431283

0.0106999 -0.00789137 0.00541382
-0.00789137 0.00311282 0.00216625
0.00541382 0.00216625 -0.00838471

0.0223778 -0.0100831 0.00784054
-0.0100831 -0.000882112 0.00570668
0.00784054 0.00570668 -0.0101579

0.0325283 -0.00682112 0.00623303
-0.00682112 -0.0036576 0.00736551
0.00623303 0.00736551 -0.0118537

0.0378149 -0.00264104 0.00337515
-0.00264104 -0.00432624 0.00778897
0.00337515 0.00778897 -0.0124734

0.0378149 0.00205917 8.2768e-05
0.00205917 -0.00365641 0.0073656
8.2768e-05 0.0073656 -0.011855

0.0325283 0.0067543 -0.00356323
0.0067543 -0.000880497 0.00570637
-0.00356323 0.00570637 -0.0101589

0.0223778 0.0108275 -0.00556204
0.0108275 0.00311148 0.00216674
-0.00556204 0.00216674 -0.00838346

0.0106999 0.00934949 -0.00341395
0.00934949 0.00548927 -8.37205e-05
-0.00341395 -8.37205e-05 -0.00430902

-0.00076908 -0.00458646 -0.00231613
-0.00458646 0.00231122 -0.00170722
-0.00231613 -0.00170722 0.000507114

0.00671526 -0.00890345 -2.12409e-05
-0.00890345 -0.00236414 -0.000973257
-2.12409e-05 -0.000973257 -9.70192e-05

0.0178222 -0.0113197 0.00253839
-0.0113197 -0.0115942 0.00109904
0.00253839 0.00109904 0.0014954

0.0271919 -0.00716166 0.00386696
-0.00716166 -0.0145491 0.00106861
0.00386696 0.00106861 0.00150609

0.0309085 -0.00225733 0.00381392
-0.00225733 -0.0140895 0.00164094
0.00381392 0.00164094 0.00108933

0.0309085 0.00228262 0.00325648
0.00228262 -0.0145469 0.00107065
0.00325648 0.00107065 0.00150333

0.0271919 0.00733298 0.00199532
0.00733298 -0.01158 0.00110478
0.00199532 0.00110478 0.00149018

0.0178222 0.0120513 0.00103931
0.0120513 -0.00237538 -0.000978342
0.00103931 -0.000978342 -0.000102011

0.00671526 0.0103236 0.00166483
0.0103236 0.00230741 -0.00171176
0.00166483 -0.00171176 0.000507036

-0.00132579 -0.0035106 -0.00370286
-0.0035106 0.000539673 -0.00349577
-0.00370286 -0.00349577 0.000767818

0.00343179 -0.00710657 -0.00421613
-0.00710657 -0.00390464 -0.00558979
-0.00421613 -0.00558979 -0.000476723

0.0106944 -0.00871109 -0.0021213
-0.00871109 -0.0154752 -0.00879629
-0.0021213 -0.00879629 0.00183841

0.0155309 -0.0035244 0.00177937
-0.0035244 -0.0146223 -0.00903323
0.00177937 -0.00903323 0.00158141

0.0168524 -0.000894799 0.00400353
-0.000894799 -0.0127662 -0.00811368
0.00400353 -0.00811368 0.000200141

0.0168524 0.000572643 0.00515285
0.000572643 -0.0146144 -0.00902826
0.00515285 -0.00902826 0.00158317

0.0155309 0.00510489 0.00591154
0.00510489 -0.0154668 -0.00877874
0.00591154 -0.00877874 0.00183787

0.0106944 0.00953906 0.00628568
0.00953906 -0.0039135 -0.00560563
0.00628568 -0.00560563 -0.000487773

0.00343179 0.00731793 0.0056999
0.00731793 0.000532622 -0.00350266
0.0056999 -0.00350266 0.000752964

0.0216091 -0.00240348 -0.00739605
-0.00240348 0.0234483 0.00743292
-0.00739605 0.00743292 -0.0458379

0.0237008 0.00131927 -0.00657804
0.00131927 0.0140385 0.0117355
-0.00657804 0.0117355 -0.0429645

0.0244483 0.000961441 -0.00705463
0.000961441 0.0111033 0.00862035
-0.00705463 0.00862035 -0.0435282

0.0248732 0.00072229 -0.00742104
0.00072229 0.0109139 0.0047397
-0.00742104 0.0047397 -0.0443689

0.0250123 0.000388373 -0.00757057
0.000388373 0.0111652 0.000115548
-0.00757057 0.000115548 -0.044784

0.0248732 -3.11491e-05 -0.00742089
-3.11491e-05 0.0111652 -0.00459307
-0.00742089 -0.00459307 -0.0443696

0.0244484 -0.000498004 -0.00705437
-0.000498004 0.0109139 -0.0089339
-0.00705437 -0.0089339 -0.0435297

0.023701 -0.000955693 -0.00657769
-0.000955693 0.0111033 -0.0122535
-0.00657769 -0.0122535 -0.0429665

0.0216088 -0.0012241 -0.00739449
-0.0012241 0.0140385 -0.0139489
-0.00739449 -0.0139489 -0.0458349

0.0200259 0.00148478 -9.46832e-06
0.00148478 0.017348 0.00150521
-9.46832e-06 0.00150521 -0.0388703

0.020031 0.00066137 -0.000945339
0.00066137 0.0184818 0.0065279
-0.000945339 0.0065279 -0.0412494

0.0207934 0.00155067 -0.00116196
0.00155067 0.0183991 0.00678115
-0.00116196 0.00678115 -0.043378

0.0211061 0.001187 -0.00149323
0.001187 0.0193401 0.00419675
-0.00149323 0.00419675 -0.0451931

0.021218 0.000617064 -0.00161369
0.000617064 0.0201621 0.000309139
-0.00161369 0.000309139 -0.045878

0.0211061 -0.000147083 -0.00149303
-0.000147083 0.0201621 -0.00386381
-0.00149303 -0.00386381 -0.0451938

0.0207935 -0.00094771 -0.00116169
-0.00094771 0.0193401 -0.00725636
-0.00116169 -0.00725636 -0.0433796

0.020031 -0.00170833 -0.000945299
-0.00170833 0.0183991 -0.00879864
-0.000945299 -0.00879864 -0.0412503

0.020027 -0.00134178 -1.02709e-05
-0.00134178 0.0184818 -0.00664168
-1.02709e-05 -0.00664168 -0.0388678

0.0175623 0.0015468 0.000538629
0.0015468 0.0149846 0.00102565
0.000538629 0.00102565 -0.0336886

0.0182408 0.00161666 1.68357e-05
0.00161666 0.0187124 0.0049424
1.68357e-05 0.0049424 -0.0392842

0.0185581 0.00188529 -0.000803082
0.00188529 0.0224439 0.00612523
-0.000803082 0.00612523 -0.0438995

0.0187731 0.00166006 -0.00136447
0.00166006 0.0254806 0.00428986
-0.00136447 0.00428986 -0.0470227

0.0188278 0.000844605 -0.00157978
0.000844605 0.0272976 0.000641152
-0.00157978 0.000641152 -0.0481319

0.018773 -0.000234263 -0.00136433
-0.000234263 0.0272976 -0.00340838
-0.00136433 -0.00340838 -0.0470226

0.0185582 -0.00135494 -0.000803016
-0.00135494 0.0254806 -0.00645098
-0.000803016 -0.00645098 -0.0438994

0.018241 -0.00210056 1.65337e-05
-0.00210056 0.0224439 -0.00709227
1.65337e-05 -0.00709227 -0.0392837

0.0175631 -0.00245632 0.000538418
-0.00245632 0.0187124 -0.00455444
0.000538418 -0.00455444 -0.0336878

0.0152153 0.00146299 -4.82503e-05
0.00146299 0.0126231 0.00164454
-4.82503e-05 0.00164454 -0.0279858

0.0158869 0.00239794 -0.000911667
0.00239794 0.017953 0.00567577
-0.000911667 0.00567577 -0.0353837

0.0160249 0.0028789 -0.00232518
0.0028789 0.024392 0.00698499
-0.00232518 0.00698499 -0.041868

0.0159749 0.00237568 -0.00337748
0.00237568 0.0298181 0.00511191
-0.00337748 0.00511191 -0.046098

0.0159376 0.00117873 -0.00374681
0.00117873 0.0328485 0.00119079
-0.00374681 0.00119079 -0.0475301

0.0159748 -0.000406115 -0.00337739
-0.000406115 0.0328485 -0.00323116
-0.00337739 -0.00323116 -0.0460966

0.0160249 -0.00199407 -0.00232533
-0.00199407 0.0298181 -0.00656937
-0.00232533 -0.00656937 -0.0418659

0.0158872 -0.00315463 -0.000912156
-0.00315463 0.024392 -0.00735054
-0.000912156 -0.00735054 -0.0353829

0.015216 -0.00333344 -4.83772e-05
-0.00333344 0.017953 -0.00484673
-4.83772e-05 -0.00484673 -0.0279863

0.0124932 0.00183324 -0.000661327
0.00183324 0.00960931 0.0022872
-0.000661327 0.0022872 -0.0207616

0.0127949 0.00362075 -0.00219488
0.00362075 0.0163275 0.00693615
-0.00219488 0.00693615 -0.0288877

0.0124107 0.00452231 -0.00455108
0.00452231 0.0251512 0.0084391
-0.00455108 0.0084391 -0.0360772

0.0118903 0.00359381 -0.00614694
0.00359381 0.0327506 0.00626825
-0.00614694 0.00626825 -0.0405624

0.0116606 0.00165504 -0.00669922
0.00165504 0.0369395 0.00191839
-0.00669922 0.00191839 -0.0420055

0.0118901 -0.000750602 -0.00614674
-0.000750602 0.0369395 -0.00297037
-0.00614674 -0.00297037 -0.0405601

0.0124106 -0.00316222 -0.0045512
-0.00316222 0.0327506 -0.00689317
-0.0045512 -0.00689317 -0.0360733

0.0127953 -0.00489261 -0.0021957
-0.00489261 0.0251512 -0.00818079
-0.0021957 -0.00818079 -0.0288871

0.0124941 -0.00475009 -0.000661935
-0.00475009 0.0163275 -0.00569412
-0.000661935 -0.00569412 -0.020762

0.0091518 0.00277286 -0.000780056
0.00277286 0.00589908 0.0021093
-0.000780056 0.0021093 -0.0123556

0.00851151 0.00556386 -0.0029558
0.00556386 0.0138891 0.007209
-0.0029558 0.007209 -0.0195491

0.0069654 0.00705677 -0.00637008
0.00705677 0.0246767 0.0091822
-0.00637008 0.0091822 -0.0253966

0.00555581 0.00526876 -0.00827119
0.00526876 0.0340192 0.00698919
-0.00827119 0.00698919 -0.0288766

0.00502664 0.00221828 -0.00896364
0.00221828 0.0390477 0.00269318
-0.00896364 0.00269318 -0.0299946

0.0055557 -0.00133493 -0.00827076
-0.00133493 0.0390477 -0.00207755
-0.00827076 -0.00207755 -0.028875

0.00696532 -0.00491895 -0.00636964
-0.00491895 0.0340192 -0.00623809
-0.00636964 -0.00623809 -0.0253927

0.00851194 -0.0075776 -0.0029571
-0.0075776 0.0246767 -0.00801302
-0.0029571 -0.00801302 -0.0195485

0.00915302 -0.00690928 -0.000781481
-0.00690928 0.0138891 -0.00559322
-0.000781481 -0.00559322 -0.012354

0.00548903 0.00408443 8.43692e-05
0.00408443 0.00210345 0.000687059
8.43692e-05 0.000687059 -0.00431283

0.00311282 0.00789137 -0.00216625
0.00789137 0.0106999 0.00541382
-0.00216625 0.00541382 -0.00838471

-0.000882112 0.0100831 -0.00570668
0.0100831 0.0223778 0.00784054
-0.00570668 0.00784054 -0.0101579

-0.0036576 0.00682112 -0.00736551
0.00682112 0.0325283 0.00623303
-0.00736551 0.00623303 -0.0118537

-0.00432624 0.00264104 -0.00778897
0.00264104 0.0378149 0.00337515
-0.00778897 0.00337515 -0.0124734

-0.00365641 -0.00205917 -0.0073656
-0.00205917 0.0378149 8.2768e-05
-0.0073656 8.2768e-05 -0.011855

-0.000880497 -0.0067543 -0.00570637
-0.0067543 0.0325283 -0.00356323
-0.00570637 -0.00356323 -0.0101589

0.00311148 -0.0108275 -0.00216674
-0.0108275 0.0223778 -0.00556204
-0.00216674 -0.00556204 -0.00838346

0.00548927 -0.00934949 8.37205e-05
-0.00934949 0.0106999 -0.00341395
8.37205e-05 -0.00341395 -0.00430902

0.00231122 0.00458646 0.00170722
0.00458646 -0.00076908 -0.00231613
0.00170722 -0.00231613 0.000507114

-0.00236414 0.00890345 0.000973257
0.00890345 0.00671526 -2.12409e-05
0.000973257 -2.12409e-05 -9.70192e-05

-0.0115942 0.0113197 -0.00109904
0.0113197 0.0178222 0.00253839
-0.00109904 0.00253839 0.0014954

-0.0145491 0.00716166 -0.00106861
0.00716166 0.0271919 0.00386696
-0.00106861 0.00386696 0.00150609

-0.0140895 0.00225733 -0.00164094
0.00225733 0.0309085 0.00381392
-0.00164094 0.00381392 0.00108933

-0.0145469 -0.00228262 -0.00107065
-0.00228262 0.0309085 0.00325648
-0.00107065 0.00325648 0.00150333

-0.01158 -0.00733298 -0.00110478
-0.00733298 0.0271919 0.00199532
-0.00110478 0.00199532 0.00149018

-0.00237538 -0.0120513 0.000978342
-0.0120513 0.0178222 0.00103931
0.000978342 0.00103931 -0.000102011

0.00230741 -0.0103236 0.00171176
-0.0103236 0.00671526 0.00166483
0.00171176 0.00166483 0.000507036

0.000539673 0.0035106 0.00349577
0.0035106 -0.00132579 -0.00370286
0.00349577 -0.00370286 0.000767818

-0.00390464 0.00710657 0.00558979
0.00710657 0.00343179 -0.00421613
0.00558979 -0.00421613 -0.000476723

-0.0154752 0.00871109 0.00879629
0.00871109 0.0106944 -0.0021213
0.00879629 -0.0021213 0.00183841

-0.0146223 0.0035244 0.00903323
0.0035244 0.0155309 0.00177937
0.00903323 0.00177937 0.00158141

-0.0127662 0.000894799 0.00811368
0.000894799 0.0168524 0.00400353
0.00811368 0.00400353 0.000200141

-0.0146144 -0.000572643 0.00902826
-0.000572643 0.0168524 0.00515285
0.00902826 0.00515285 0.00158317

-0.0154668 -0.00510489 0.00877874
-0.00510489 0.0155309 0.00591154
0.00877874 0.00591154 0.00183787

-0.0039135 -0.00953906 0.00560563
-0.00953906 0.0106944 0.00628568
0.00560563 0.00628568 -0.000487773

0.000532622 -0.00731793 0.00350266
-0.00731793 0.00343179 0.0056999
0.00350266 0.0056999 0.000752964

-1.61297e-05 3.83719e-07 -0.0228045
3.83719e-07 -5.73794e-05 0.0228045
-0.0228045 0.0228045 -0.0241152

-1.05949e-05 -2.67844e-06 -0.0159262
-2.67844e-06 -6.57759e-05 0.0236554
-0.0159262 0.0236554 -0.0231501

-9.27292e-06 -2.61208e-06 -0.0104094
-2.61208e-06 -7.00206e-05 0.0248003
-0.0104094 0.0248003 -0.022806

-9.04393e-06 -7.88284e-07 -0.00520153
-7.88284e-07 -7.28273e-05 0.0256446
-0.00520153 0.0256446 -0.0230514

-9.04393e-06 1.40927e-06 -2.45599e-16
1.40927e-06 -7.37947e-05 0.0259547
-2.45599e-16 0.0259547 -0.0231716

-9.27292e-06 3.06007e-06 0.00520153
3.06007e-06 -7.28271e-05 0.0256446
0.00520153 0.0256446 -0.0230516

-1.05949e-05 2.80065e-06 0.0104094
2.80065e-06 -7.00173e-05 0.0248003
0.0104094 0.0248003 -0.0228073

-1.61297e-05 7.45344e-08 0.0159262
7.45344e-08 -6.57273e-05 0.0236554
0.0159262 0.0236554 -0.0231557

-5.7349e-05 -2.43496e-05 0.0228045
-2.43496e-05 -5.7349e-05 0.0228045
0.0228045 0.0228045 -0.0241565

-1.74364e-05 -3.12626e-06 -0.0236554
-3.12626e-06 -1.61792e-05 0.0159262
-0.0236554 0.0159262 -0.0231074

-1.13495e-05 -2.95436e-06 -0.0165006
-2.95436e-06 -1.74368e-05 0.0165006
-0.0165006 0.0165006 -0.0218731

-9.8335e-06 -2.23547e-06 -0.0107276
-2.23547e-06 -1.90041e-05 0.0173137
-0.0107276 0.0173137 -0.0215486

-9.50891e-06 -8.78961e-07 -0.00533558
-8.78961e-07 -1.99301e-05 0.0179719
-0.00533558 0.0179719 -0.0218077

-9.50891e-06 6.45933e-07 -1.49539e-16
6.45933e-07 -2.02623e-05 0.0182167
-1.49539e-16 0.0182167 -0.0219363

-9.8335e-06 1.94571e-06 0.00533558
1.94571e-06 -1.99275e-05 0.0179719
0.00533558 0.0179719 -0.021808

-1.13495e-05 2.54827e-06 0.0107276
2.54827e-06 -1.89981e-05 0.0173137
0.0107276 0.0173137 -0.0215501

-1.74364e-05 2.46705e-06 0.0165006
2.46705e-06 -1.74364e-05 0.0165006
0.0165006 0.0165006 -0.0218792

-6.57273e-05 7.45344e-08 0.0236554
7.45344e-08 -1.61297e-05 0.0159262
0.0236554 0.0159262 -0.0231557

-1.89981e-05 -3.35837e-06 -0.0248003
-3.35837e-06 -1.05962e-05 0.0104094
-0.0248003 0.0104094 -0.0227563

-1.22881e-05 -2.65496e-06 -0.0173137
-2.65496e-06 -1.13513e-05 0.0107276
-0.0173137 0.0107276 -0.0215434

-1.07619e-05 -1.94163e-06 -0.0112727
-1.94163e-06 -1.22894e-05 0.0112727
-0.0112727 0.0112727 -0.0212525

-1.04864e-05 -8.68967e-07 -0.0056072
-8.68967e-07 -1.30722e-05 0.0117218
-0.0056072 0.0117218 -0.0215733

-1.04864e-05 3.65433e-07 3.06748e-16
3.65433e-07 -1.3356e-05 0.0118928
3.06748e-16 0.0118928 -0.0217245

-1.07619e-05 1.45626e-06 0.0056072
1.45626e-06 -1.307e-05 0.0117218
0.0056072 0.0117218 -0.0215736

-1.22881e-05 2.16263e-06 0.0112727
2.16263e-06 -1.22881e-05 0.0112727
0.0112727 0.0112727 -0.0212541

-1.89981e-05 2.54827e-06 0.0173137
2.54827e-06 -1.13495e-05 0.0107276
0.0173137 0.0107276 -0.0215501

-7.00173e-05 2.80065e-06 0.0248003
2.80065e-06 -1.05949e-05 0.0104094
0.0248003 0.0104094 -0.0228073

-1.99275e-05 -2.4189e-06 -0.0256446
-2.4189e-06 -9.27693e-06 0.00520153
-0.0256446 0.00520153 -0.0229987

-1.307e-05 -1.86629e-06 -0.0179719
-1.86629e-06 -9.83073e-06 0.00533558
-0.0179719 0.00533558 -0.0218012

-1.15577e-05 -1.31292e-06 -0.0117218
-1.31292e-06 -1.07632e-05 0.0056072
-0.0117218 0.0056072 -0.021572

-1.1358e-05 -6.17713e-07 -0.00583722
-6.17713e-07 -1.15597e-05 0.00583722
-0.00583722 0.00583722 -0.0219518

-1.1358e-05 1.72464e-07 3.42364e-16
1.72464e-07 -1.18721e-05 0.00592483
3.42364e-16 0.00592483 -0.0221274

-1.15577e-05 8.99624e-07 0.00583722
8.99624e-07 -1.15577e-05 0.00583722
0.00583722 0.00583722 -0.021952

-1.307e-05 1.45626e-06 0.0117218
1.45626e-06 -1.07619e-05 0.0056072
0.0117218 0.0056072 -0.0215736

-1.99275e-05 1.94571e-06 0.0179719
1.94571e-06 -9.8335e-06 0.00533558
0.0179719 0.00533558 -0.021808

-7.28271e-05 3.06007e-06 0.0256446
3.06007e-06 -9.27292e-06 0.00520153
0.0256446 0.00520153 -0.0230516

-2.02623e-05 -8.15704e-07 -0.0259547
-8.15704e-07 -9.05027e-06 -9.24391e-16
-0.0259547 -9.24391e-16 -0.0231181

-1.3356e-05 -5.20579e-07 -0.0182167
-5.20579e-07 -9.50574e-06 -9.72313e-16
-0.0182167 -9.72313e-16 -0.0219294

-1.18721e-05 -3.38626e-07 -0.0118928
-3.38626e-07 -1.04875e-05 -6.70362e-16
-0.0118928 -6.70362e-16 -0.021723

-1.17015e-05 -1.71936e-07 -0.00592483
-1.71936e-07 -1.13605e-05 6.1767e-16
-0.00592483 6.1767e-16 -0.0221273

-1.17015e-05 -1.13361e-09 3.50495e-16
-1.13361e-09 -1.17015e-05 4.31296e-16
3.50495e-16 4.31296e-16 -0.0223118

-1.18721e-05 1.72464e-07 0.00592483
1.72464e-07 -1.1358e-05 -1.40361e-15
0.00592483 -1.40361e-15 -0.0221274

-1.3356e-05 3.65433e-07 0.0118928
3.65433e-07 -1.04864e-05 -1.24271e-15
0.0118928 -1.24271e-15 -0.0217245

-2.02623e-05 6.45933e-07 0.0182167
6.45933e-07 -9.50891e-06 2.91434e-16
0.0182167 2.91434e-16 -0.0219363

-7.37947e-05 1.40927e-06 0.0259547
1.40927e-06 -9.04393e-06 2.63895e-16
0.0259547 2.63895e-16 -0.0231716

-1.99301e-05 1.04132e-06 -0.0256446
1.04132e-06 -9.05027e-06 -0.00520153
-0.0256446 -0.00520153 -0.0229985

-1.30722e-05 9.97702e-07 -0.0179719
9.97702e-07 -9.50574e-06 -0.00533558
-0.0179719 -0.00533558 -0.0218009

-1.15597e-05 7.63904e-07 -0.0117218
7.63904e-07 -1.04875e-05 -0.0056072
-0.0117218 -0.0056072 -0.0215718

-1.13605e-05 3.39886e-07 -0.00583722
3.39886e-07 -1.13605e-05 -0.00583722
-0.00583722 -0.00583722 -0.0219516

-1.13605e-05 -1.71936e-07 4.27176e-16
-1.71936e-07 -1.17015e-05 -0.00592483
4.27176e-16 -0.00592483 -0.0221273

-1.15597e-05 -6.17713e-07 0.00583722
-6.17713e-07 -1.1358e-05 -0.00583722
0.00583722 -0.00583722 -0.0219518

-1.30722e-05 -8.68967e-07 0.0117218
-8.68967e-07 -1.04864e-05 -0.0056072
0.0117218 -0.0056072 -0.0215733

-1.99301e-05 -8.78961e-07 0.0179719
-8.78961e-07 -9.50891e-06 -0.00533558
0.0179719 -0.00533558 -0.0218077

-7.28273e-05 -7.88284e-07 0.0256446
-7.88284e-07 -9.04393e-06 -0.00520153
0.0256446 -0.00520153 -0.0230514

-1.90041e-05 2.68571e-06 -0.0248003
2.68571e-06 -9.27693e-06 -0.0104094
-0.0248003 -0.0104094 -0.022755

-1.22894e-05 2.31212e-06 -0.0173137
2.31212e-06 -9.83073e-06 -0.0107276
-0.0173137 -0.0107276 -0.0215419

-1.07632e-05 1.69416e-06 -0.0112727
1.69416e-06 -1.07632e-05 -0.0112727
-0.0112727 -0.0112727 -0.021251

-1.04875e-05 7.63904e-07 -0.0056072
7.63904e-07 -1.15597e-05 -0.0117218
-0.0056072 -0.0117218 -0.0215718

-1.04875e-05 -3.38626e-07 3.03902e-16
-3.38626e-07 -1.18721e-05 -0.0118928
3.03902e-16 -0.0118928 -0.021723

-1.07632e-05 -1.31292e-06 0.0056072
-1.31292e-06 -1.15577e-05 -0.0117218
0.0056072 -0.0117218 -0.021572

-1.22894e-05 -1.94163e-06 0.0112727
-1.94163e-06 -1.07619e-05 -0.0112727
0.0112727 -0.0112727 -0.0212525

-1.90041e-05 -2.23547e-06 0.0173137
-2.23547e-06 -9.8335e-06 -0.0107276
0.0173137 -0.0107276 -0.0215486

-7.00206e-05 -2.61208e-06 0.0248003
-2.61208e-06 -9.27292e-06 -0.0104094
0.0248003 -0.0104094 -0.022806

-1.74368e-05 3.70557e-06 -0.0236554
3.70557e-06 -1.05962e-05 -0.0159262
-0.0236554 -0.0159262 -0.0231018

-1.13513e-05 3.09936e-06 -0.0165006
3.09936e-06 -1.13513e-05 -0.0165006
-0.0165006 -0.0165006 -0.021867

-9.83073e-06 2.31212e-06 -0.0107276
2.31212e-06 -1.22894e-05 -0.0173137
-0.0107276 -0.0173137 -0.0215419

-9.50574e-06 9.97702e-07 -0.00533558
9.97702e-07 -1.30722e-05 -0.0179719
-0.00533558 -0.0179719 -0.0218009

-9.50574e-06 -5.20579e-07 -1.45907e-16
-5.20579e-07 -1.3356e-05 -0.0182167
-1.45907e-16 -0.0182167 -0.0219294

-9.83073e-06 -1.86629e-06 0.00533558
-1.86629e-06 -1.307e-05 -0.0179719
0.00533558 -0.0179719 -0.0218012

-1.13513e-05 -2.65496e-06 0.0107276
-2.65496e-06 -1.22881e-05 -0.0173137
0.0107276 -0.0173137 -0.0215434

-1.74368e-05 -2.95436e-06 0.0165006
-2.95436e-06 -1.13495e-05 -0.0165006
0.0165006 -0.0165006 -0.0218731

-6.57759e-05 -2.67844e-06 0.0236554
-2.67844e-06 -1.05949e-05 -0.0159262
0.0236554 -0.0159262 -0.0231501

-1.61792e-05 3.72427e-06 -0.0228045
3.72427e-06 -1.61792e-05 -0.0228045
-0.0228045 -0.0228045 -0.024074

-1.05962e-05 3.70557e-06 -0.0159262
3.70557e-06 -1.74368e-05 -0.0236554
-0.0159262 -0.0236554 -0.0231018

-9.27693e-06 2.68571e-06 -0.0104094
2.68571e-06 -1.90041e-05 -0.0248003
-0.0104094 -0.0248003 -0.022755

-9.05027e-06 1.04132e-06 -0.00520153
1.04132e-06 -1.99301e-05 -0.0256446
-0.00520153 -0.0256446 -0.0229985

-9.05027e-06 -8.15704e-07 -4.98354e-16
-8.15704e-07 -2.02623e-05 -0.0259547
-4.98354e-16 -0.0259547 -0.0231181

-9.27693e-06 -2.4189e-06 0.00520153
-2.4189e-06 -1.99275e-05 -0.0256446
0.00520153 -0.0256446 -0.0229987

-1.05962e-05 -3.35837e-06 0.0104094
-3.35837e-06 -1.89981e-05 -0.0248003
0.0104094 -0.0248003 -0.0227563

-1.61792e-05 -3.12626e-06 0.0159262
-3.12626e-06 -1.74364e-05 -0.0236554
0.0159262 -0.0236554 -0.0231074

-5.73794e-05 3.83719e-07 0.0228045
3.83719e-07 -1.61297e-05 -0.0228045
0.0228045 -0.0228045 -0.0241152

0.00310992 0.00513402 0.001901
0.00513402 0.00310992 0.001901
0.001901 0.001901 -0.00402922

0.00133319 0.00574379 0.00446731
0.00574379 0.00893025 -0.00834657
0.00446731 -0.00834657 -0.00658565

0.00121584 0.0118452 0.0010803
0.0118452 0.0133611 -0.00205273
0.0010803 -0.00205273 -0.00648901

-0.00461652 0.00098858 0.00417574
0.00098858 0.025627 -0.0174909
0.00417574 -0.0174909 -0.00994061

-0.00461652 -0.00291451 0.00613339
-0.00291451 0.0185049 -0.0175556
0.00613339 -0.0175556 -0.00875038

0.00121584 -0.00361205 0.00754737
-0.00361205 0.0254284 -0.0175527
0.00754737 -0.0175527 -0.0099384

0.00133319 -0.00977133 0.000826832
-0.00977133 0.013553 -0.00200454
0.000826832 -0.00200454 -0.00652027

0.00310992 -0.00751535 -0.00164218
-0.00751535 0.00879022 -0.0083614
-0.00164218 -0.0083614 -0.00655746

0.00101664 -0.00419432 -0.00137015
-0.00419432 0.00325036 0.00191318
-0.00137015 0.00191318 -0.00399607

0.00893025 0.00574379 -0.00834657
0.00574379 0.00133319 0.00446731
-0.00834657 0.00446731 -0.00658565

-0.00835944 0.00566704 0.00997509
0.00566704 -0.00835944 0.00997509
0.00997509 0.00997509 -0.0199736

-0.0145601 -0.00499762 -0.00566695
-0.00499762 0.0746323 -0.194705
-0.00566695 -0.194705 -0.00625011

-0.000742433 -0.00122986 0.00548893
-0.00122986 0.0471256 -0.142398
0.00548893 -0.142398 -0.0221946

-0.000742433 -0.00171792 0.00831447
-0.00171792 0.0459864 -0.135097
0.00831447 -0.135097 -0.0217744

-0.0145601 -0.0206251 0.0252634
-0.0206251 0.046403 -0.142089
0.0252634 -0.142089 -0.0221648

-0.00835944 0.0148988 0.00502919
0.0148988 0.0575376 -0.194164
0.00502919 -0.194164 -0.00552669

0.00893025 -0.00801642 0.00556019
-0.00801642 0.00946575 0.00906799
0.00556019 0.00906799 -0.0207299

0.00343564 -0.00387471 -0.00625478
-0.00387471 0.00133256 0.00450263
-0.00625478 0.00450263 -0.0065386

0.0133611 0.0118452 -0.00205273
0.0118452 0.00121584 0.0010803
-0.00205273 0.0010803 -0.00648901

0.0746323 -0.00499762 -0.194705
-0.00499762 -0.0145601 -0.00566695
-0.194705 -0.00566695 -0.00625011

0.0418523 0.0232392 0.0444318
0.0232392 0.0418523 0.0444318
0.0444318 0.0444318 -0.228201

0.00529463 0.00473057 0.0247774
0.00473057 0.0256777 0.0510684
0.0247774 0.0510684 -0.16481

0.00529463 -0.000992318 -0.000109768
-0.000992318 0.0263244 0.0517034
-0.000109768 0.0517034 -0.152869

0.0418523 -0.015026 -0.0266283
-0.015026 0.0256452 0.0510747
-0.0266283 0.0510747 -0.165277

0.0746323 0.0213424 0.15568
0.0213424 0.0411455 0.046239
0.15568 0.046239 -0.233198

0.0133611 -0.0172644 -0.0184797
-0.0172644 -0.0140216 -0.00742729
-0.0184797 -0.00742729 -0.000764325

0.00462357 -0.005385 -0.0147388
-0.005385 0.00140137 0.00103956
-0.0147388 0.00103956 -0.00633231

0.025627 0.00098858 -0.0174909
0.00098858 -0.00461652 0.00417574
-0.0174909 0.00417574 -0.00994061

0.0471256 -0.00122986 -0.142398
-0.00122986 -0.000742433 0.00548893
-0.142398 0.00548893 -0.0221946

0.0256777 0.00473057 0.0510684
0.00473057 0.00529463 0.0247774
0.0510684 0.0247774 -0.16481

-0.00215501 0.00273869 0.0273744
0.00273869 -0.00215501 0.0273744
0.0273744 0.0273744 -0.0948203

-0.00215501 -0.00135712 -6.34561e-05
-0.00135712 -0.00491083 0.0275297
-6.34561e-05 0.0275297 -0.0847407

0.0256777 -0.0050419 -0.0282458
-0.0050419 -0.0021578 0.0273926
-0.0282458 0.0273926 -0.0953263

0.0471256 0.00186181 0.13234
0.00186181 0.00527786 0.0250067
0.13234 0.0250067 -0.1663

0.025627 0.0025909 -0.000913721
0.0025909 -0.000727791 0.00526834
-0.000913721 0.00526834 -0.0200534

0.00883928 -0.00413513 -0.0150229
-0.00413513 -0.0046126 0.00415359
-0.0150229 0.00415359 -0.00988125

0.0185049 -0.00291451 -0.0175556
-0.00291451 -0.00461652 0.00613339
-0.0175556 0.00613339 -0.00875038

0.0459864 -0.00171792 -0.135097
-0.00171792 -0.000742433 0.00831447
-0.135097 0.00831447 -0.0217744

0.0263244 -0.000992318 0.0517034
-0.000992318 0.00529463 -0.000109768
0.0517034 -0.000109768 -0.152869

-0.00491083 -0.00135712 0.0275297
-0.00135712 -0.00215501 -6.34561e-05
0.0275297 -6.34561e-05 -0.0847407

-0.00491083 -1.71359e-05 1.26912e-05
-1.71359e-05 -0.00491083 1.26912e-05
1.26912e-05 1.26912e-05 -0.0731257

0.0263244 0.00132771 -0.0283758
0.00132771 -0.0021578 -7.8495e-05
-0.0283758 -7.8495e-05 -0.0851998

0.0459864 0.0012107 0.127587
0.0012107 0.00527786 -0.000330389
0.127587 -0.000330389 -0.153954

0.0185049 -0.000628105 0.00302739
-0.000628105 -0.000727791 0.00852554
0.00302739 0.00852554 -0.0200344

0.0114239 0.00248058 -0.0157434
0.00248058 -0.0046126 0.0061531
-0.0157434 0.0061531 -0.0087304

0.0254284 -0.00361205 -0.0175527
-0.00361205 0.00121584 0.00754737
-0.0175527 0.00754737 -0.0099384

0.046403 -0.0206251 -0.142089
-0.0206251 -0.0145601 0.0252634
-0.142089 0.0252634 -0.0221648

0.0256452 -0.015026 0.0510747
-0.015026 0.0418523 -0.0266283
0.0510747 -0.0266283 -0.165277

-0.0021578 -0.0050419 0.0273926
-0.0050419 0.0256777 -0.0282458
0.0273926 -0.0282458 -0.0953263

-0.0021578 0.00132771 -7.8495e-05
0.00132771 0.0263244 -0.0283758
-7.8495e-05 -0.0283758 -0.0851998

0.0256452 0.0070321 -0.0282298
0.0070321 0.0256452 -0.0282298
-0.0282298 -0.0282298 -0.0958305

0.046403 0.00874052 0.132769
0.00874052 0.0411455 -0.0277117
0.132769 -0.0277117 -0.166634

0.0254284 0.0102601 -0.000766199
0.0102601 -0.0140216 0.0263625
-0.000766199 0.0263625 -0.0201503

0.00882225 0.00597852 -0.0150207
0.00597852 0.00140137 0.0075051
-0.0150207 0.0075051 -0.00988809

0.013553 -0.00977133 -0.00200454
-0.00977133 0.00133319 0.000826832
-0.00200454 0.000826832 -0.00652027

0.0575376 0.0148988 -0.194164
0.0148988 -0.00835944 0.00502919
-0.194164 0.00502919 -0.00552669

0.0411455 0.0213424 0.046239
0.0213424 0.0746323 0.15568
0.046239 0.15568 -0.233198

0.00527786 0.00186181 0.0250067
0.00186181 0.0471256 0.13234
0.0250067 0.13234 -0.1663

0.00527786 0.0012107 -0.000330389
0.0012107 0.0459864 0.127587
-0.000330389 0.127587 -0.153954

0.0411455 0.00874052 -0.0277117
0.00874052 0.046403 0.132769
-0.0277117 0.132769 -0.166634

0.0575376 0.071564 0.165509
0.071564 0.0575376 0.165509
0.165509 0.165509 -0.237391

0.013553 0.0121214 -0.0186297
0.0121214 0.00946575 -0.00519738
-0.0186297 -0.00519738 -0.000975873

0.00462929 0.00331001 -0.014743
0.00331001 0.00133256 0.000809491
-0.014743 0.000809491 -0.00637277

0.00879022 -0.00751535 -0.0083614
-0.00751535 0.00310992 -0.00164218
-0.0083614 -0.00164218 -0.00655746

0.00946575 -0.00801642 0.00906799
-0.00801642 0.00893025 0.00556019
0.00906799 0.00556019 -0.0207299

-0.0140216 -0.0172644 -0.00742729
-0.0172644 0.0133611 -0.0184797
-0.00742729 -0.0184797 -0.000764325

-0.000727791 0.0025909 0.00526834
0.0025909 0.025627 -0.000913721
0.00526834 -0.000913721 -0.0200534

-0.000727791 -0.000628105 0.00852554
-0.000628105 0.0185049 0.00302739
0.00852554 0.00302739 -0.0200344

-0.0140216 0.0102601 0.0263625
0.0102601 0.0254284 -0.000766199
0.0263625 -0.000766199 -0.0201503

0.00946575 0.0121214 -0.00519738
0.0121214 0.013553 -0.0186297
-0.00519738 -0.0186297 -0.000975873

0.00879022 0.0108143 0.00563453
0.0108143 0.00879022 0.00563453
0.00563453 0.00563453 -0.0204355

0.00343668 0.00556926 -0.0062524
0.00556926 0.00325036 -0.00169716
-0.0062524 -0.00169716 -0.00649283

0.00325036 -0.00419432 0.00191318
-0.00419432 0.00101664 -0.00137015
0.00191318 -0.00137015 -0.00399607

0.00133256 -0.00387471 0.00450263
-0.00387471 0.00343564 -0.00625478
0.00450263 -0.00625478 -0.0065386

0.00140137 -0.005385 0.00103956
-0.005385 0.00462357 -0.0147388
0.00103956 -0.0147388 -0.00633231

-0.0046126 -0.00413513 0.00415359
-0.00413513 0.00883928 -0.0150229
0.00415359 -0.0150229 -0.00988125

-0.0046126 0.00248058 0.0061531
0.00248058 0.0114239 -0.0157434
0.0061531 -0.0157434 -0.0087304

0.00140137 0.00597852 0.0075051
0.00597852 0.00882225 -0.0150207
0.0075051 -0.0150207 -0.00988809

0.00133256 0.00331001 0.000809491
0.00331001 0.00462929 -0.014743
0.000809491 -0.014743 -0.00637277

0.00325036 0.00556926 -0.00169716
0.00556926 0.00343668 -0.0062524
-0.00169716 -0.0062524 -0.00649283

0.00102392 0.00326179 -0.00137315
0.00326179 0.00102392 -0.00137315
-0.00137315 -0.00137315 -0.00396168

0.01385 -0.00172422 -0.0146365
-0.00172422 0.01385 -0.0146365
-0.0146365 -0.0146365 -0.0453631

0.0110922 -0.00174055 -0.0120497
-0.00174055 0.0144099 -0.014861
-0.0120497 -0.014861 -0.0424334

0.0104656 -0.00117748 -0.00859772
-0.00117748 0.0150829 -0.0155581
-0.00859772 -0.0155581 -0.0428276

0.0104511 -0.0004499 -0.00440286
-0.0004499 0.0154604 -0.016179
-0.00440286 -0.016179 -0.043507

0.0104511 0.000314621 3.7044e-05
0.000314621 0.0155929 -0.0164174
3.7044e-05 -0.0164174 -0.0438572

0.0104656 0.000991845 0.00441846
0.000991845 0.0154604 -0.016179
0.00441846 -0.016179 -0.0435066

0.0110922 0.00148225 0.00825432
0.00148225 0.0150829 -0.0155581
0.00825432 -0.0155581 -0.0428266

0.01385 0.00144443 0.0116528
0.00144443 0.0144099 -0.014861
0.0116528 -0.014861 -0.0424323

0.0216088 0.000178907 0.00818492
0.000178907 0.0138498 -0.014636
0.00818492 -0.014636 -0.0453597

0.0144099 -0.00174055 -0.014861
-0.00174055 0.0110922 -0.0120497
-0.014861 -0.0120497 -0.0424334

0.0116091 -0.00164316 -0.0123095
-0.00164316 0.0116091 -0.0123095
-0.0123095 -0.0123095 -0.0391745

0.010837 -0.00121591 -0.00878863
-0.00121591 0.0121502 -0.0129194
-0.00878863 -0.0129194 -0.0395025

0.0107217 -0.000521823 -0.00449811
-0.000521823 0.0125729 -0.0134501
-0.00449811 -0.0134501 -0.0401623

0.0107217 0.000247657 3.7033e-05
0.000247657 0.012722 -0.013658
3.7033e-05 -0.013658 -0.0405063

0.010837 0.000940036 0.0045085
0.000940036 0.0125729 -0.0134501
0.0045085 -0.0134501 -0.0401618

0.0116091 0.00137273 0.00843995
0.00137273 0.0121502 -0.0129194
0.00843995 -0.0129194 -0.0395014

0.0144099 0.00140424 0.0117682
0.00140424 0.0116091 -0.0123096
0.0117682 -0.0123096 -0.0391737

0.023701 0.000582232 0.00841522
0.000582232 0.0110922 -0.0120491
0.00841522 -0.0120491 -0.0424303

0.0150829 -0.00117748 -0.0155581
-0.00117748 0.0104656 -0.00859772
-0.0155581 -0.00859772 -0.0428276

0.0121502 -0.00121591 -0.0129194
-0.00121591 0.010837 -0.00878863
-0.0129194 -0.00878863 -0.0395025

0.011389 -0.000907251 -0.00923451
-0.000907251 0.011389 -0.00923451
-0.00923451 -0.00923451 -0.0399601

0.0112702 -0.000405146 -0.00472853
-0.000405146 0.0118313 -0.00962803
-0.00472853 -0.00962803 -0.0407682

0.0112702 0.000172867 4.39505e-05
0.000172867 0.0119998 -0.00978065
4.39505e-05 -0.00978065 -0.0411734

0.011389 0.000686168 0.00475023
0.000686168 0.0118313 -0.00962798
0.00475023 -0.00962798 -0.0407677

0.0121502 0.00100471 0.00886635
0.00100471 0.011389 -0.00923445
0.00886635 -0.00923445 -0.0399589

0.0150829 0.00098883 0.0123652
0.00098883 0.010837 -0.00878858
0.0123652 -0.00878858 -0.0395015

0.0244484 0.000285727 0.00888441
0.000285727 0.0104656 -0.00859742
0.00888441 -0.00859742 -0.0428243

0.0154604 -0.0004499 -0.016179
-0.0004499 0.0104511 -0.00440286
-0.016179 -0.00440286 -0.043507

0.0125729 -0.000521823 -0.0134501
-0.000521823 0.0107217 -0.00449811
-0.0134501 -0.00449811 -0.0401623

0.0118313 -0.000405146 -0.00962803
-0.000405146 0.0112702 -0.00472853
-0.00962803 -0.00472853 -0.0407682

0.0117348 -0.000177032 -0.00493229
-0.000177032 0.0117348 -0.00493229
-0.00493229 -0.00493229 -0.0417134

0.0117348 8.85348e-05 5.27221e-05
8.85348e-05 0.0119119 -0.00501159
5.27221e-05 -0.00501159 -0.0421751

0.0118313 0.000320945 0.00496518
0.000320945 0.0117348 -0.00493226
0.00496518 -0.00493226 -0.0417128

0.0125729 0.000447343 0.00925649
0.000447343 0.0112702 -0.0047285
0.00925649 -0.0047285 -0.0407668

0.0154604 0.000383673 0.0128689
0.000383673 0.0107217 -0.00449809
0.0128689 -0.00449809 -0.0401612

0.0248732 -3.8286e-05 0.00930738
-3.8286e-05 0.0104511 -0.00440275
0.00930738 -0.00440275 -0.0435035

0.0155929 0.000314621 -0.0164174
0.000314621 0.0104511 3.7044e-05
-0.0164174 3.7044e-05 -0.0438572

0.012722 0.000247657 -0.013658
0.000247657 0.0107217 3.7033e-05
-0.013658 3.7033e-05 -0.0405063

0.0119998 0.000172867 -0.00978065
0.000172867 0.0112702 4.39505e-05
-0.00978065 4.39505e-05 -0.0411734

0.0119119 8.85348e-05 -0.00501159
8.85348e-05 0.0117348 5.27221e-05
-0.00501159 5.27221e-05 -0.0421751

0.0119119 -1.05202e-08 5.59176e-05
-1.05202e-08 0.0119119 5.59176e-05
5.59176e-05 5.59176e-05 -0.0426595

0.0119998 -8.85597e-05 0.00504984
-8.85597e-05 0.0117348 5.27099e-05
0.00504984 5.27099e-05 -0.0421744

0.012722 -0.000173037 0.00940661
-0.000173037 0.0112702 4.3923e-05
0.00940661 4.3923e-05 -0.041172

0.0155929 -0.000248354 0.0130685
-0.000248354 0.0107217 3.70038e-05
0.0130685 3.70038e-05 -0.0405052

0.0250123 -0.000318669 0.00947074
-0.000318669 0.0104511 3.69401e-05
0.00947074 3.69401e-05 -0.0438537

0.0154604 0.000991845 -0.016179
0.000991845 0.0104656 0.00441846
-0.016179 0.00441846 -0.0435066

0.0125729 0.000940036 -0.0134501
0.000940036 0.010837 0.0045085
-0.0134501 0.0045085 -0.0401618

0.0118313 0.000686168 -0.00962798
0.000686168 0.011389 0.00475023
-0.00962798 0.00475023 -0.0407677

0.0117348 0.000320945 -0.00493226
0.000320945 0.0118313 0.00496518
-0.00493226 0.00496518 -0.0417128

0.0117348 -8.85597e-05 5.27099e-05
-8.85597e-05 0.0119998 0.00504984
5.27099e-05 0.00504984 -0.0421744

0.0118313 -0.000464914 0.00496514
-0.000464914 0.0118313 0.00496514
0.00496514 0.00496514 -0.0417121

0.0125729 -0.00072862 0.00925645
-0.00072862 0.011389 0.00475017
0.00925645 0.00475017 -0.0407663

0.0154604 -0.000803064 0.0128689
-0.000803064 0.010837 0.00450843
0.0128689 0.00450843 -0.0401608

0.0248732 -0.000509735 0.00930753
-0.000509735 0.0104656 0.00441815
0.00930753 0.00441815 -0.0435031

0.0150829 0.00148225 -0.0155581
0.00148225 0.0110922 0.00825432
-0.0155581 0.00825432 -0.0428266

0.0121502 0.00137273 -0.0129194
0.00137273 0.0116091 0.00843995
-0.0129194 0.00843995 -0.0395014

0.011389 0.00100471 -0.00923445
0.00100471 0.0121502 0.00886635
-0.00923445 0.00886635 -0.0399589

0.0112702 0.000447343 -0.0047285
0.000447343 0.0125729 0.00925649
-0.0047285 0.00925649 -0.0407668

0.0112702 -0.000173037 4.3923e-05
-0.000173037 0.012722 0.00940661
4.3923e-05 0.00940661 -0.041172

0.011389 -0.00072862 0.00475017
-0.00072862 0.0125729 0.00925645
0.00475017 0.00925645 -0.0407663

0.0121502 -0.00110205 0.00886629
-0.00110205 0.0121502 0.00886629
0.00886629 0.00886629 -0.0399577

0.0150829 -0.0011456 0.0123652
-0.0011456 0.0116091 0.00843998
0.0123652 0.00843998 -0.0395004

0.0244483 -0.000587592 0.00888468
-0.000587592 0.0110922 0.00825378
0.00888468 0.00825378 -0.0428233

0.0144099 0.00144443 -0.014861
0.00144443 0.01385 0.0116528
-0.014861 0.0116528 -0.0424323

0.0116091 0.00140424 -0.0123096
0.00140424 0.0144099 0.0117682
-0.0123096 0.0117682 -0.0391737

0.010837 0.00098883 -0.00878858
0.00098883 0.0150829 0.0123652
-0.00878858 0.0123652 -0.0395015

0.0107217 0.000383673 -0.00449809
0.000383673 0.0154604 0.0128689
-0.00449809 0.0128689 -0.0401612

0.0107217 -0.000248354 3.70038e-05
-0.000248354 0.0155929 0.0130685
3.70038e-05 0.0130685 -0.0405052

0.010837 -0.000803064 0.00450843
-0.000803064 0.0154604 0.0128689
0.00450843 0.0128689 -0.0401608

0.0116091 -0.0011456 0.00843998
-0.0011456 0.0150829 0.0123652
0.00843998 0.0123652 -0.0395004

0.0144099 -0.00116429 0.0117683
-0.00116429 0.0144099 0.0117683
0.0117683 0.0117683 -0.0391729

0.0237008 -0.000272466 0.00841519
-0.000272466 0.0138498 0.0116518
0.00841519 0.0116518 -0.0424292

0.0138498 0.000178907 -0.014636
0.000178907 0.0216088 0.00818492
-0.014636 0.00818492 -0.0453597

0.0110922 0.000582232 -0.0120491
0.000582232 0.023701 0.00841522
-0.0120491 0.00841522 -0.0424303

0.0104656 0.000285727 -0.00859742
0.000285727 0.0244484 0.00888441
-0.00859742 0.00888441 -0.0428243

0.0104511 -3.8286e-05 -0.00440275
-3.8286e-05 0.0248732 0.00930738
-0.00440275 0.00930738 -0.0435035

0.0104511 -0.000318669 3.69401e-05
-0.000318669 0.0250123 0.00947074
3.69401e-05 0.00947074 -0.0438537

0.0104656 -0.000509735 0.00441815
-0.000509735 0.0248732 0.00930753
0.00441815 0.00930753 -0.0435031

0.0110922 -0.000587592 0.00825378
-0.000587592 0.0244483 0.00888468
0.00825378 0.00888468 -0.0428233

0.0138498 -0.000272466 0.0116518
-0.000272466 0.0237008 0.00841519
0.0116518 0.00841519 -0.0424292

0.0216091 0.00148383 0.00818553
0.00148383 0.0216091 0.00818553
0.00818553 0.00818553 -0.0453558

0.0198436 -0.00247745 -0.00651173
-0.00247745 0.0198436 -0.00651173
-0.00651173 -0.00651173 -0.0444671

0.018715 -0.00273082 -0.00832591
-0.00273082 0.0206241 -0.0069345
-0.00832591 -0.0069345 -0.0462861

0.0188619 -0.00201431 -0.00676199
-0.00201431 0.0214991 -0.00763678
-0.00676199 -0.00763678 -0.0481911

0.0192227 -0.000789844 -0.00361389
-0.000789844 0.0221125 -0.00827245
-0.00361389 -0.00827245 -0.0498919

0.0192227 0.000558619 0.000198495
0.000558619 0.0223231 -0.00852152
0.000198495 -0.00852152 -0.0505346

0.0188619 0.0017273 0.00376772
0.0017273 0.0221125 -0.0082724
0.00376772 -0.0082724 -0.0498914

0.018715 0.0023981 0.00625114
0.0023981 0.021499 -0.00763667
0.00625114 -0.00763667 -0.0481897

0.0198436 0.0020876 0.00623677
0.0020876 0.020624 -0.00693424
0.00623677 -0.00693424 -0.0462848

0.020027 0.00134021 0.00125188
0.00134021 0.0198435 -0.00651172
0.00125188 -0.00651172 -0.0444699

0.0206241 -0.00273082 -0.0069345
-0.00273082 0.018715 -0.00832591
-0.0069345 -0.00832591 -0.0462861

0.019381 -0.00287634 -0.00885168
-0.00287634 0.019381 -0.00885168
-0.00885168 -0.00885168 -0.0486532

0.0194362 -0.00216622 -0.00710969
-0.00216622 0.0202916 -0.00964504
-0.00710969 -0.00964504 -0.050779

0.0196852 -0.000950926 -0.0037995
-0.000950926 0.0209974 -0.0103536
-0.0037995 -0.0103536 -0.0527062

0.0196852 0.000451504 0.000189579
0.000451504 0.0212628 -0.0106261
0.000189579 -0.0106261 -0.0534298

0.0194362 0.0016848 0.00393261
0.0016848 0.0209974 -0.0103535
0.00393261 -0.0103535 -0.0527056

0.019381 0.00242141 0.00656987
0.00242141 0.0202916 -0.00964484
0.00656987 -0.00964484 -0.0507775

0.0206241 0.00229364 0.00650509
0.00229364 0.019381 -0.00885141
0.00650509 -0.00885141 -0.0486517

0.020031 0.00132741 0.00184737
0.00132741 0.018715 -0.00832553
0.00184737 -0.00832553 -0.046288

0.0214991 -0.00201431 -0.00763678
-0.00201431 0.0188619 -0.00676199
-0.00763678 -0.00676199 -0.0481911

0.0202916 -0.00216622 -0.00964504
-0.00216622 0.0194362 -0.00710969
-0.00964504 -0.00710969 -0.050779

0.0203997 -0.0016609 -0.00775864
-0.0016609 0.0203997 -0.00775864
-0.00775864 -0.00775864 -0.0533711

0.0206845 -0.000747136 -0.00413692
-0.000747136 0.0212022 -0.00831896
-0.00413692 -0.00831896 -0.0556658

0.0206845 0.000318262 0.000222185
0.000318262 0.0215078 -0.00853704
0.000222185 -0.00853704 -0.0565332

0.0203997 0.00125997 0.00431717
0.00125997 0.0212021 -0.00831884
0.00431717 -0.00831884 -0.0556651

0.0202916 0.00181365 0.0071879
0.00181365 0.0203997 -0.00775845
0.0071879 -0.00775845 -0.0533694

0.0214991 0.00170775 0.00719446
0.00170775 0.0194362 -0.00710946
0.00719446 -0.00710946 -0.0507771

0.0207935 0.000791576 0.0022863
0.000791576 0.0188619 -0.00676167
0.0022863 -0.00676167 -0.0481929

0.0221125 -0.000789844 -0.00827245
-0.000789844 0.0192227 -0.00361389
-0.00827245 -0.00361389 -0.0498919

0.0209974 -0.000950926 -0.0103536
-0.000950926 0.0196852 -0.0037995
-0.0103536 -0.0037995 -0.0527062

0.0212022 -0.000747136 -0.00831896
-0.000747136 0.0206845 -0.00413692
-0.00831896 -0.00413692 -0.0556658

0.0215427 -0.000330583 -0.00443146
-0.000330583 0.0215427 -0.00443146
-0.00443146 -0.00443146 -0.0582845

0.0215427 0.000165307 0.000255535
0.000165307 0.0218734 -0.00454484
0.000255535 -0.00454484 -0.0592749

0.0212022 0.00059452 0.00465731
0.00059452 0.0215427 -0.0044314
0.00465731 -0.0044314 -0.0582837

0.0209974 0.000818476 0.00774859
0.000818476 0.0206845 -0.00413684
0.00774859 -0.00413684 -0.0556638

0.0221125 0.000684607 0.00779729
0.000684607 0.0196852 -0.00379941
0.00779729 -0.00379941 -0.052704

0.0211061 9.13322e-05 0.00266626
9.13322e-05 0.0192226 -0.00361376
0.00266626 -0.00361376 -0.0498936

0.0223231 0.000558619 -0.00852152
0.000558619 0.0192227 0.000198495
-0.00852152 0.000198495 -0.0505346

0.0212628 0.000451504 -0.0106261
0.000451504 0.0196852 0.000189579
-0.0106261 0.000189579 -0.0534298

0.0215078 0.000318262 -0.00853704
0.000318262 0.0206845 0.000222185
-0.00853704 0.000222185 -0.0565332

0.0218734 0.000165307 -0.00454484
0.000165307 0.0215427 0.000255535
-0.00454484 0.000255535 -0.0592749

0.0218734 6.84734e-08 0.000268687
6.84734e-08 0.0218734 0.000268687
0.000268687 0.000268687 -0.0603143

0.0215078 -0.00016527 0.00479078
-0.00016527 0.0215427 0.000255505
0.00479078 0.000255505 -0.0592741

0.0212628 -0.000318569 0.00796571
-0.000318569 0.0206845 0.000222116
0.00796571 0.000222116 -0.0565311

0.0223231 -0.00045327 0.00802961
-0.00045327 0.0196852 0.000189461
0.00802961 0.000189461 -0.0534276

0.021218 -0.000560863 0.00281546
-0.000560863 0.0192226 0.000198369
0.00281546 0.000198369 -0.0505362

0.0221125 0.0017273 -0.0082724
0.0017273 0.0188619 0.00376772
-0.0082724 0.00376772 -0.0498914

0.0209974 0.0016848 -0.0103535
0.0016848 0.0194362 0.00393261
-0.0103535 0.00393261 -0.0527056

0.0212021 0.00125997 -0.00831884
0.00125997 0.0203997 0.00431717
-0.00831884 0.00431717 -0.0556651

0.0215427 0.00059452 -0.0044314
0.00059452 0.0212022 0.00465731
-0.0044314 0.00465731 -0.0582837

0.0215427 -0.00016527 0.000255505
-0.00016527 0.0215078 0.00479078
0.000255505 0.00479078 -0.0592741

0.0212021 -0.000858452 0.00465721
-0.000858452 0.0212021 0.00465721
0.00465721 0.00465721 -0.0582829

0.0209974 -0.00133158 0.00774847
-0.00133158 0.0203997 0.00431698
0.00774847 0.00431698 -0.0556632

0.0221125 -0.00142041 0.00779725
-0.00142041 0.0194362 0.00393234
0.00779725 0.00393234 -0.0527034

0.0211061 -0.00103053 0.00266644
-0.00103053 0.0188619 0.00376739
0.00266644 0.00376739 -0.049893

0.021499 0.0023981 -0.00763667
0.0023981 0.018715 0.00625114
-0.00763667 0.00625114 -0.0481897

0.0202916 0.00242141 -0.00964484
0.00242141 0.019381 0.00656987
-0.00964484 0.00656987 -0.0507775

0.0203997 0.00181365 -0.00775845
0.00181365 0.0202916 0.0071879
-0.00775845 0.0071879 -0.0533694

0.0206845 0.000818476 -0.00413684
0.000818476 0.0209974 0.00774859
-0.00413684 0.00774859 -0.0556638

0.0206845 -0.000318569 0.000222116
-0.000318569 0.0212628 0.00796571
0.000222116 0.00796571 -0.0565311

0.0203997 -0.00133158 0.00431698
-0.00133158 0.0209974 0.00774847
0.00431698 0.00774847 -0.0556632

0.0202916 -0.00196571 0.00718769
-0.00196571 0.0202916 0.00718769
0.00718769 0.00718769 -0.0533677

0.021499 -0.00196035 0.00719436
-0.00196035 0.019381 0.00656957
0.00719436 0.00656957 -0.0507756

0.0207934 -0.00116919 0.00228655
-0.00116919 0.018715 0.00625074
0.00228655 0.00625074 -0.0481915

0.020624 0.0020876 -0.00693424
0.0020876 0.0198436 0.00623677
-0.00693424 0.00623677 -0.0462848

0.019381 0.00229364 -0.00885141
0.00229364 0.0206241 0.00650509
-0.00885141 0.00650509 -0.0486517

0.0194362 0.00170775 -0.00710946
0.00170775 0.0214991 0.00719446
-0.00710946 0.00719446 -0.0507771

0.0196852 0.000684607 -0.00379941
0.000684607 0.0221125 0.00779729
-0.00379941 0.00779729 -0.052704

0.0196852 -0.00045327 0.000189461
-0.00045327 0.0223231 0.00802961
0.000189461 0.00802961 -0.0534276

0.0194362 -0.00142041 0.00393234
-0.00142041 0.0221125 0.00779725
0.00393234 0.00779725 -0.0527034

0.019381 -0.00196035 0.00656957
-0.00196035 0.021499 0.00719436
0.00656957 0.00719436 -0.0507756

0.020624 -0.00169695 0.00650481
-0.00169695 0.020624 0.00650481
0.00650481 0.00650481 -0.0486501

0.020031 -0.000658921 0.00184748
-0.000658921 0.0198435 0.00623681
0.00184748 0.00623681 -0.0462867

0.0198435 0.00134021 -0.00651172
0.00134021 0.020027 0.00125188
-0.00651172 0.00125188 -0.0444699

0.018715 0.00132741 -0.00832553
0.00132741 0.020031 0.00184737
-0.00832553 0.00184737 -0.046288

0.0188619 0.000791576 -0.00676167
0.000791576 0.0207935 0.0022863
-0.00676167 0.0022863 -0.0481929

0.0192226 9.13322e-05 -0.00361376
9.13322e-05 0.0211061 0.00266626
-0.00361376 0.00266626 -0.0498936

0.0192226 -0.000560863 0.000198369
-0.000560863 0.021218 0.00281546
0.000198369 0.00281546 -0.0505362

0.0188619 -0.00103053 0.00376739
-0.00103053 0.0211061 0.00266644
0.00376739 0.00266644 -0.049893

0.018715 -0.00116919 0.00625074
-0.00116919 0.0207934 0.00228655
0.00625074 0.00228655 -0.0481915

0.0198435 -0.000658921 0.00623681
-0.000658921 0.020031 0.00184748
0.00623681 0.00184748 -0.0462867

0.0200259 -0.000142219 0.00125099
-0.000142219 0.0200259 0.00125099
0.00125099 0.00125099 -0.0444728

0.0203939 -0.00396679 -0.00404599
-0.00396679 0.0203939 -0.00404599
-0.00404599 -0.00404599 -0.0399951

0.0228749 -0.00407664 -0.00647613
-0.00407664 0.0214841 -0.00493778
-0.00647613 -0.00493778 -0.0454606

0.0248707 -0.00305499 -0.00586652
-0.00305499 0.0223842 -0.0063151
-0.00586652 -0.0063151 -0.0499527

0.0260778 -0.00124171 -0.0031157
-0.00124171 0.0230632 -0.00742219
-0.0031157 -0.00742219 -0.053015

0.0260778 0.000814824 0.000509704
0.000814824 0.0233073 -0.00784023
0.000509704 -0.00784023 -0.054111

0.0248707 0.0025842 0.00378156
0.0025842 0.0230632 -0.00742209
0.00378156 -0.00742209 -0.0530153

0.0228749 0.00353617 0.00544832
0.00353617 0.0223841 -0.00631487
0.00544832 -0.00631487 -0.0499528

0.0203939 0.00342228 0.00433722
0.00342228 0.0214841 -0.00493749
0.00433722 -0.00493749 -0.0454609

0.0175631 0.00211848 0.000646664
0.00211848 0.0203938 -0.00404565
0.000646664 -0.00404565 -0.0399961

0.0214841 -0.00407664 -0.00493778
-0.00407664 0.0228749 -0.00647613
-0.00493778 -0.00647613 -0.0454606

0.0239566 -0.00436968 -0.00736602
-0.00436968 0.0239566 -0.00736602
-0.00736602 -0.00736602 -0.0514598

0.0258128 -0.00336699 -0.00660116
-0.00336699 0.0252193 -0.00887949
-0.00660116 -0.00887949 -0.0568112

0.0269317 -0.00149715 -0.00349619
-0.00149715 0.0262222 -0.0101162
-0.00349619 -0.0101162 -0.0604817

0.0269317 0.000691285 0.000535639
0.000691285 0.0265988 -0.0105882
0.000535639 -0.0105882 -0.0618117

0.0258128 0.00262003 0.00420508
0.00262003 0.0262221 -0.010116
0.00420508 -0.010116 -0.0604821

0.0239566 0.0037391 0.00614938
0.0037391 0.0252193 -0.00887917
0.00614938 -0.00887917 -0.0568115

0.0214841 0.00362706 0.00514019
0.00362706 0.0239567 -0.00736563
0.00514019 -0.00736563 -0.0514598

0.018241 0.00194228 0.00117126
0.00194228 0.022875 -0.00647572
0.00117126 -0.00647572 -0.045461

0.0223842 -0.00305499 -0.0063151
-0.00305499 0.0248707 -0.00586652
-0.0063151 -0.00586652 -0.0499527

0.0252193 -0.00336699 -0.00887949
-0.00336699 0.0258128 -0.00660116
-0.00887949 -0.00660116 -0.0568112

0.0273082 -0.00262482 -0.00782556
-0.00262482 0.0273082 -0.00782556
-0.00782556 -0.00782556 -0.0633158

0.0285447 -0.00119404 -0.00413136
-0.00119404 0.028554 -0.00883538
-0.00413136 -0.00883538 -0.0678579

0.0285447 0.000502457 0.00063207
0.000502457 0.02903 -0.00922028
0.00063207 -0.00922028 -0.0695147

0.0273082 0.00200272 0.00498657
0.00200272 0.0285539 -0.00883521
0.00498657 -0.00883521 -0.0678584

0.0252193 0.00286634 0.00738962
0.00286634 0.0273082 -0.00782527
0.00738962 -0.00782527 -0.0633161

0.0223842 0.00271578 0.00643659
0.00271578 0.0258129 -0.00660084
0.00643659 -0.00660084 -0.0568108

0.0185582 0.0012477 0.00207998
0.0012477 0.0248708 -0.00586609
0.00207998 -0.00586609 -0.049952

0.0230632 -0.00124171 -0.00742219
-0.00124171 0.0260778 -0.0031157
-0.00742219 -0.0031157 -0.053015

0.0262222 -0.00149715 -0.0101162
-0.00149715 0.0269317 -0.00349619
-0.0101162 -0.00349619 -0.0604817

0.028554 -0.00119404 -0.00883538
-0.00119404 0.0285447 -0.00413136
-0.00883538 -0.00413136 -0.0678579

0.029929 -0.000531615 -0.00465156
-0.000531615 0.029929 -0.00465156
-0.00465156 -0.00465156 -0.0730909

0.029929 0.000265454 0.000720606
0.000265454 0.0304615 -0.00485029
0.000720606 -0.00485029 -0.0750098

0.028554 0.000956525 0.00564287
0.000956525 0.0299288 -0.00465147
0.00564287 -0.00465147 -0.0730915

0.0262222 0.00130945 0.00841867
0.00130945 0.0285447 -0.00413123
0.00841867 -0.00413123 -0.0678581

0.0230632 0.00111986 0.00750305
0.00111986 0.0269319 -0.00349608
0.00750305 -0.00349608 -0.0604809

0.018773 0.000207258 0.00277364
0.000207258 0.0260777 -0.00311553
0.00277364 -0.00311553 -0.0530137

0.0233073 0.000814824 -0.00784023
0.000814824 0.0260778 0.000509704
-0.00784023 0.000509704 -0.054111

0.0265988 0.000691285 -0.0105882
0.000691285 0.0269317 0.000535639
-0.0105882 0.000535639 -0.0618117

0.02903 0.000502457 -0.00922028
0.000502457 0.0285447 0.00063207
-0.00922028 0.00063207 -0.0695147

0.0304615 0.000265454 -0.00485029
0.000265454 0.029929 0.000720606
-0.00485029 0.000720606 -0.0750098

0.0304615 9.60371e-07 0.000755802
9.60371e-07 0.0304615 0.000755802
0.000755802 0.000755802 -0.077031

0.02903 -0.000263981 0.00589476
-0.000263981 0.0299288 0.000720591
0.00589476 0.000720591 -0.0750105

0.0265988 -0.000502367 0.00881182
-0.000502367 0.0285447 0.000631976
0.00881182 0.000631976 -0.069515

0.0233073 -0.000692645 0.00790581
-0.000692645 0.0269319 0.000535431
0.00790581 0.000535431 -0.0618107

0.0188278 -0.000816866 0.00303503
-0.000816866 0.0260777 0.000509513
0.00303503 0.000509513 -0.0541094

0.0230632 0.0025842 -0.00742209
0.0025842 0.0248707 0.00378156
-0.00742209 0.00378156 -0.0530153

0.0262221 0.00262003 -0.010116
0.00262003 0.0258128 0.00420508
-0.010116 0.00420508 -0.0604821

0.0285539 0.00200272 -0.00883521
0.00200272 0.0273082 0.00498657
-0.00883521 0.00498657 -0.0678584

0.0299288 0.000956525 -0.00465147
0.000956525 0.028554 0.00564287
-0.00465147 0.00564287 -0.0730915

0.0299288 -0.000263981 0.000720591
-0.000263981 0.02903 0.00589476
0.000720591 0.00589476 -0.0750105

0.0285539 -0.00137915 0.00564276
-0.00137915 0.0285539 0.00564276
0.00564276 0.00564276 -0.0730921

0.0262221 -0.00211784 0.00841853
-0.00211784 0.0273082 0.00498629
0.00841853 0.00498629 -0.0678587

0.0230632 -0.00224439 0.00750296
-0.00224439 0.0258129 0.00420464
0.00750296 0.00420464 -0.0604813

0.0187731 -0.00155239 0.00277375
-0.00155239 0.0248708 0.00378108
0.00277375 0.00378108 -0.053014

0.0223841 0.00353617 -0.00631487
0.00353617 0.0228749 0.00544832
-0.00631487 0.00544832 -0.0499528

0.0252193 0.0037391 -0.00887917
0.0037391 0.0239566 0.00614938
-0.00887917 0.00614938 -0.0568115

0.0273082 0.00286634 -0.00782527
0.00286634 0.0252193 0.00738962
-0.00782527 0.00738962 -0.0633161

0.0285447 0.00130945 -0.00413123
0.00130945 0.0262222 0.00841867
-0.00413123 0.00841867 -0.0678581

0.0285447 -0.000502367 0.000631976
-0.000502367 0.0265988 0.00881182
0.000631976 0.00881182 -0.069515

0.0273082 -0.00211784 0.00498629
-0.00211784 0.0262221 0.00841853
0.00498629 0.00841853 -0.0678587

0.0252193 -0.00310701 0.00738928
-0.00310701 0.0252193 0.00738928
0.00738928 0.00738928 -0.0633164

0.0223841 -0.00308572 0.00643636
-0.00308572 0.0239567 0.00614888
0.00643636 0.00614888 -0.056811

0.0185581 -0.00172646 0.00208005
-0.00172646 0.022875 0.00544787
0.00208005 0.00544787 -0.0499522

0.0214841 0.00342228 -0.00493749
0.00342228 0.0203939 0.00433722
-0.00493749 0.00433722 -0.0454609

0.0239567 0.00362706 -0.00736563
0.00362706 0.0214841 0.00514019
-0.00736563 0.00514019 -0.0514598

0.0258129 0.00271578 -0.00660084
0.00271578 0.0223842 0.00643659
-0.00660084 0.00643659 -0.0568108

0.0269319 0.00111986 -0.00349608
0.00111986 0.0230632 0.00750305
-0.00349608 0.00750305 -0.0604809

0.0269319 -0.000692645 0.000535431
-0.000692645 0.0233073 0.00790581
0.000535431 0.00790581 -0.0618107

0.0258129 -0.00224439 0.00420464
-0.00224439 0.0230632 0.00750296
0.00420464 0.00750296 -0.0604813

0.0239567 -0.00308572 0.00614888
-0.00308572 0.0223841 0.00643636
0.00614888 0.00643636 -0.056811

0.0214841 -0.00287664 0.00513987
-0.00287664 0.0214841 0.00513987
0.00513987 0.00513987 -0.0514598

0.0182408 -0.0012768 0.00117099
-0.0012768 0.0203938 0.00433688
0.00117099 0.00433688 -0.0454612

0.0203938 0.00211848 -0.00404565
0.00211848 0.0175631 0.000646664
-0.00404565 0.000646664 -0.0399961

0.022875 0.00194228 -0.00647572
0.00194228 0.018241 0.00117126
-0.00647572 0.00117126 -0.045461

0.0248708 0.0012477 -0.00586609
0.0012477 0.0185582 0.00207998
-0.00586609 0.00207998 -0.049952

0.0260777 0.000207258 -0.00311553
0.000207258 0.018773 0.00277364
-0.00311553 0.00277364 -0.0530137

0.0260777 -0.000816866 0.000509513
-0.000816866 0.0188278 0.00303503
0.000509513 0.00303503 -0.0541094

0.0248708 -0.00155239 0.00378108
-0.00155239 0.0187731 0.00277375
0.00378108 0.00277375 -0.053014

0.022875 -0.00172646 0.00544787
-0.00172646 0.0185581 0.00208005
0.00544787 0.00208005 -0.0499522

0.0203938 -0.0012768 0.00433688
-0.0012768 0.0182408 0.00117099
0.00433688 0.00117099 -0.0454612

0.0175623 -0.000254601 0.000646427
-0.000254601 0.0175623 0.000646427
0.000646427 0.000646427 -0.0399971

0.0198266 -0.00583986 -0.00444179
-0.00583986 0.0198266 -0.00444179
-0.00444179 -0.00444179 -0.0351019

0.0249439 -0.00623687 -0.00674621
-0.00623687 0.0210959 -0.00618796
-0.00674621 -0.00618796 -0.0427977

0.0290553 -0.00472408 -0.0060002
-0.00472408 0.0221612 -0.00881543
-0.0060002 -0.00881543 -0.0496572

0.0313044 -0.00197494 -0.00295832
-0.00197494 0.0229239 -0.0108438
-0.00295832 -0.0108438 -0.05415

0.0313044 0.00119198 0.0010493
0.00119198 0.0231995 -0.0115872
0.0010493 -0.0115872 -0.0556976

0.0290553 0.00394065 0.00459374
0.00394065 0.0229238 -0.0108437
0.00459374 -0.0108437 -0.0541519

0.0249439 0.00550625 0.00628804
0.00550625 0.0221612 -0.0088153
0.00628804 -0.0088153 -0.0496597

0.0198266 0.00520591 0.0050778
0.00520591 0.021096 -0.00618748
0.0050778 -0.00618748 -0.0427981

0.015216 0.00299921 0.00142357
0.00299921 0.0198264 -0.00444111
0.00142357 -0.00444111 -0.0351007

0.0210959 -0.00623687 -0.00618796
-0.00623687 0.0249439 -0.00674621
-0.00618796 -0.00674621 -0.0427977

0.0264065 -0.00684255 -0.00871307
-0.00684255 0.0264065 -0.00871307
-0.00871307 -0.00871307 -0.0518539

0.0306232 -0.00531053 -0.00756674
-0.00531053 0.0282204 -0.0116322
-0.00756674 -0.0116322 -0.060595

0.032871 -0.00239963 -0.00375716
-0.00239963 0.0296426 -0.0139095
-0.00375716 -0.0139095 -0.0664712

0.032871 0.0010531 0.00118207
0.0010531 0.0301786 -0.0147586
0.00118207 -0.0147586 -0.0685199

0.0306232 0.00411908 0.00560552
0.00411908 0.0296425 -0.0139095
0.00560552 -0.0139095 -0.0664739

0.0264065 0.00593756 0.00793702
0.00593756 0.0282204 -0.011632
0.00793702 -0.011632 -0.0605984

0.0210959 0.00570509 0.00679395
0.00570509 0.0264069 -0.00871242
0.00679395 -0.00871242 -0.0518537

0.0158872 0.00308609 0.00247337
0.00308609 0.0249441 -0.00674519
0.00247337 -0.00674519 -0.0427951

0.0221612 -0.00472408 -0.00881543
-0.00472408 0.0290553 -0.0060002
-0.00881543 -0.0060002 -0.0496572

0.0282204 -0.00531053 -0.0116322
-0.00531053 0.0306232 -0.00756674
-0.0116322 -0.00756674 -0.060595

0.0330102 -0.00417144 -0.00992784
-0.00417144 0.0330102 -0.00992784
-0.00992784 -0.00992784 -0.0718007

0.0355676 -0.00191371 -0.00495686
-0.00191371 0.0349683 -0.011771
-0.00495686 -0.011771 -0.0794932

0.0355676 0.000788578 0.00142578
0.000788578 0.0357124 -0.012458
0.00142578 -0.012458 -0.0822287

0.0330102 0.00319452 0.00719684
0.00319452 0.034968 -0.011771
0.00719684 -0.011771 -0.0794971

0.0282204 0.00460157 0.0104397
0.00460157 0.0330102 -0.00992764
0.0104397 -0.00992764 -0.0718055

0.0221612 0.00434352 0.00934826
0.00434352 0.0306236 -0.00756608
0.00934826 -0.00756608 -0.0605935

0.0160249 0.00201933 0.00414888
0.00201933 0.0290554 -0.00599926
0.00414888 -0.00599926 -0.0496521

0.0229239 -0.00197494 -0.0108438
-0.00197494 0.0313044 -0.00295832
-0.0108438 -0.00295832 -0.05415

0.0296426 -0.00239963 -0.0139095
-0.00239963 0.032871 -0.00375716
-0.0139095 -0.00375716 -0.0664712

0.0349683 -0.00191371 -0.011771
-0.00191371 0.0355676 -0.00495686
-0.011771 -0.00495686 -0.0794932

0.0378207 -0.000855839 -0.00588557
-0.000855839 0.0378207 -0.00588557
-0.00588557 -0.00588557 -0.0885544

0.0378207 0.000425222 0.00163096
0.000425222 0.0386826 -0.00622818
0.00163096 -0.00622818 -0.0917895

0.0349683 0.00154292 0.00845194
0.00154292 0.0378204 -0.0058855
0.00845194 -0.0058855 -0.0885593

0.0296426 0.00213333 0.0123792
0.00213333 0.0355675 -0.00495672
0.0123792 -0.00495672 -0.079499

0.0229239 0.00183768 0.0113232
0.00183768 0.0328714 -0.00375694
0.0113232 -0.00375694 -0.0664684

0.0159748 0.00042531 0.00543711
0.00042531 0.0313044 -0.00295795
0.00543711 -0.00295795 -0.0541428

0.0231995 0.00119198 -0.0115872
0.00119198 0.0313044 0.0010493
-0.0115872 0.0010493 -0.0556976

0.0301786 0.0010531 -0.0147586
0.0010531 0.032871 0.00118207
-0.0147586 0.00118207 -0.0685199

0.0357124 0.000788578 -0.012458
0.000788578 0.0355676 0.00142578
-0.012458 0.00142578 -0.0822287

0.0386826 0.000425222 -0.00622818
0.000425222 0.0378207 0.00163096
-0.00622818 0.00163096 -0.0917895

0.0386826 6.05799e-06 0.00171154
6.05799e-06 0.0386826 0.00171154
0.00171154 0.00171154 -0.0952108

0.0357124 -0.000415256 0.00891809
-0.000415256 0.0378204 0.00163111
0.00891809 0.00163111 -0.0917949

0.0301786 -0.000783432 0.0131015
-0.000783432 0.0355675 0.00142579
0.0131015 0.00142579 -0.0822349

0.0231995 -0.00105363 0.0120562
-0.00105363 0.0328714 0.00118158
0.0120562 0.00118158 -0.0685166

0.0159376 -0.00119678 0.00590313
-0.00119678 0.0313044 0.00104878
0.00590313 0.00104878 -0.0556896

0.0229238 0.00394065 -0.0108437
0.00394065 0.0290553 0.00459374
-0.0108437 0.00459374 -0.0541519

0.0296425 0.00411908 -0.0139095
0.00411908 0.0306232 0.00560552
-0.0139095 0.00560552 -0.0664739

0.034968 0.00319452 -0.011771
0.00319452 0.0330102 0.00719684
-0.011771 0.00719684 -0.0794971

0.0378204 0.00154292 -0.0058855
0.00154292 0.0349683 0.00845194
-0.0058855 0.00845194 -0.0885593

0.0378204 -0.000415256 0.00163111
-0.000415256 0.0357124 0.00891809
0.00163111 0.00891809 -0.0917949

0.034968 -0.00221366 0.00845214
-0.00221366 0.034968 0.00845214
0.00845214 0.00845214 -0.0885643

0.0296425 -0.00340598 0.0123793
-0.00340598 0.0330102 0.00719673
0.0123793 0.00719673 -0.0795028

0.0229238 -0.0035586 0.0113232
-0.0035586 0.0306236 0.00560451
0.0113232 0.00560451 -0.0664711

0.0159749 -0.00240042 0.00543716
-0.00240042 0.0290554 0.00459254
0.00543716 0.00459254 -0.0541447

0.0221612 0.00550625 -0.0088153
0.00550625 0.0249439 0.00628804
-0.0088153 0.00628804 -0.0496597

0.0282204 0.00593756 -0.011632
0.00593756 0.0264065 0.00793702
-0.011632 0.00793702 -0.0605984

0.0330102 0.00460157 -0.00992764
0.00460157 0.0282204 0.0104397
-0.00992764 0.0104397 -0.0718055

0.0355675 0.00213333 -0.00495672
0.00213333 0.0296426 0.0123792
-0.00495672 0.0123792 -0.079499

0.0355675 -0.000783432 0.00142579
-0.000783432 0.0301786 0.0131015
0.00142579 0.0131015 -0.0822349

0.0330102 -0.00340598 0.00719673
-0.00340598 0.0296425 0.0123793
0.00719673 0.0123793 -0.0795028

0.0282204 -0.00502857 0.0104396
-0.00502857 0.0282204 0.0104396
0.0104396 0.0104396 -0.0718103

0.0221612 -0.00497278 0.00934814
-0.00497278 0.0264069 0.00793599
0.00934814 0.00793599 -0.0605969

0.0160249 -0.00280974 0.00414871
-0.00280974 0.0249441 0.00628673
0.00414871 0.00628673 -0.0496546

0.021096 0.00520591 -0.00618748
0.00520591 0.0198266 0.0050778
-0.00618748 0.0050778 -0.0427981

0.0264069 0.00570509 -0.00871242
0.00570509 0.0210959 0.00679395
-0.00871242 0.00679395 -0.0518537

0.0306236 0.00434352 -0.00756608
0.00434352 0.0221612 0.00934826
-0.00756608 0.00934826 -0.0605935

0.0328714 0.00183768 -0.00375694
0.00183768 0.0229239 0.0113232
-0.00375694 0.0113232 -0.0664684

0.0328714 -0.00105363 0.00118158
-0.00105363 0.0231995 0.0120562
0.00118158 0.0120562 -0.0685166

0.0306236 -0.0035586 0.00560451
-0.0035586 0.0229238 0.0113232
0.00560451 0.0113232 -0.0664711

0.0264069 -0.00497278 0.00793599
-0.00497278 0.0221612 0.00934814
0.00793599 0.00934814 -0.0605969

0.021096 -0.00457048 0.00679328
-0.00457048 0.021096 0.00679328
0.00679328 0.00679328 -0.0518534

0.0158869 -0.00206128 0.00247292
-0.00206128 0.0198264 0.00507706
0.00247292 0.00507706 -0.0427954

0.0198264 0.00299921 -0.00444111
0.00299921 0.015216 0.00142357
-0.00444111 0.00142357 -0.0351007

0.0249441 0.00308609 -0.00674519
0.00308609 0.0158872 0.00247337
-0.00674519 0.00247337 -0.0427951

0.0290554 0.00201933 -0.00599926
0.00201933 0.0160249 0.00414888
-0.00599926 0.00414888 -0.0496521

0.0313044 0.00042531 -0.00295795
0.00042531 0.0159748 0.00543711
-0.00295795 0.00543711 -0.0541428

0.0313044 -0.00119678 0.00104878
-0.00119678 0.0159376 0.00590313
0.00104878 0.00590313 -0.0556896

0.0290554 -0.00240042 0.00459254
-0.00240042 0.0159749 0.00543716
0.00459254 0.00543716 -0.0541447

0.0249441 -0.00280974 0.00628673
-0.00280974 0.0160249 0.00414871
0.00628673 0.00414871 -0.0496546

0.0198264 -0.00206128 0.00507706
-0.00206128 0.0158869 0.00247292
0.00507706 0.00247292 -0.0427954

0.0152153 -0.000163462 0.00142356
-0.000163462 0.0152153 0.00142356
0.00142356 0.00142356 -0.0350996

0.0185886 -0.00883935 -0.00572406
-0.00883935 0.0185886 -0.00572406
-0.00572406 -0.00572406 -0.0292882

0.025891 -0.00981735 -0.00804024
-0.00981735 0.0199271 -0.00897219
-0.00804024 -0.00897219 -0.0385224

0.0318869 -0.00750441 -0.00669796
-0.00750441 0.0211523 -0.0136279
-0.00669796 -0.0136279 -0.0472545

0.0351318 -0.00320563 -0.00289292
-0.00320563 0.0220331 -0.0169781
-0.00289292 -0.0169781 -0.0527729

0.0351318 0.00175465 0.00182112
0.00175465 0.022334 -0.0181547
0.00182112 -0.0181547 -0.0546404

0.0318869 0.0061633 0.00599646
0.0061633 0.0220328 -0.0169787
0.00599646 -0.0169787 -0.0527766

0.025891 0.00876466 0.00815719
0.00876466 0.0211522 -0.0136284
0.00815719 -0.0136284 -0.0472602

0.0185886 0.00817126 0.00675598
0.00817126 0.0199277 -0.00897136
0.00675598 -0.00897136 -0.038522

0.0124941 0.00460097 0.00235322
0.00460097 0.0185887 -0.0057225
0.00235322 -0.0057225 -0.0292859

0.0199271 -0.00981735 -0.00897219
-0.00981735 0.025891 -0.00804024
-0.00897219 -0.00804024 -0.0385224

0.028001 -0.0109334 -0.0118606
-0.0109334 0.028001 -0.0118606
-0.0118606 -0.0118606 -0.0506388

0.0345733 -0.00853451 -0.00976709
-0.00853451 0.0306649 -0.0172897
-0.00976709 -0.0172897 -0.0632163

0.0380366 -0.00390805 -0.00440736
-0.00390805 0.0327782 -0.0211877
-0.00440736 -0.0211877 -0.0714753

0.0380366 0.00160368 0.00218195
0.00160368 0.0335737 -0.0225655
0.00218195 -0.0225655 -0.0742991

0.0345733 0.00657082 0.00812449
0.00657082 0.0327776 -0.0211887
0.00812449 -0.0211887 -0.0714818

0.028001 0.00960824 0.0115286
0.00960824 0.0306649 -0.0172906
0.0115286 -0.0172906 -0.0632257

0.0199271 0.00920778 0.0100489
0.00920778 0.0280023 -0.0118591
0.0100489 -0.0118591 -0.0506362

0.0127953 0.005085 0.00436373
0.005085 0.0258919 -0.00803766
0.00436373 -0.00803766 -0.0385167

0.0211523 -0.00750441 -0.0136279
-0.00750441 0.0318869 -0.00669796
-0.0136279 -0.00669796 -0.0472545

0.0306649 -0.00853451 -0.0172897
-0.00853451 0.0345733 -0.00976709
-0.0172897 -0.00976709 -0.0632163

0.0385142 -0.00667988 -0.0141586
-0.00667988 0.0385142 -0.0141586
-0.0141586 -0.0141586 -0.0810154

0.0426558 -0.00307773 -0.00661232
-0.00307773 0.041662 -0.0172833
-0.00661232 -0.0172833 -0.0928539

0.0426558 0.00122638 0.00272714
0.00122638 0.0428537 -0.0183625
0.00272714 -0.0183625 -0.0970535

0.0385142 0.0051122 0.011213
0.0051122 0.0416612 -0.0172842
0.011213 -0.0172842 -0.0928651

0.0306649 0.00748479 0.0163341
0.00748479 0.0385139 -0.0141592
0.0163341 -0.0141592 -0.0810313

0.0211523 0.00706688 0.0147983
0.00706688 0.0345746 -0.0097653
0.0147983 -0.0097653 -0.0632086

0.0124106 0.00342257 0.00730796
0.00342257 0.0318878 -0.00669552
0.00730796 -0.00669552 -0.0472427

0.0220331 -0.00320563 -0.0169781
-0.00320563 0.0351318 -0.00289292
-0.0169781 -0.00289292 -0.0527729

0.0327782 -0.00390805 -0.0211877
-0.00390805 0.0380366 -0.00440736
-0.0211877 -0.00440736 -0.0714753

0.041662 -0.00307773 -0.0172833
-0.00307773 0.0426558 -0.00661232
-0.0172833 -0.00661232 -0.0928539

0.0463665 -0.00136465 -0.00810094
-0.00136465 0.0463665 -0.00810094
-0.00810094 -0.00810094 -0.107072

0.0463665 0.000670374 0.00314669
0.000670374 0.0477568 -0.00860253
0.00314669 -0.00860253 -0.11202

0.041662 0.00248541 0.0133999
0.00248541 0.0463656 -0.00810123
0.0133999 -0.00810123 -0.107087

0.0327782 0.00351529 0.019735
0.00351529 0.0426553 -0.00661243
0.019735 -0.00661243 -0.0928752

0.0220331 0.00305709 0.0181595
0.00305709 0.0380376 -0.00440668
0.0181595 -0.00440668 -0.071463

0.0118901 0.000866133 0.00935505
0.000866133 0.0351322 -0.00289203
0.00935505 -0.00289203 -0.0527558

0.022334 0.00175465 -0.0181547
0.00175465 0.0351318 0.00182112
-0.0181547 0.00182112 -0.0546404

0.0335737 0.00160368 -0.0225655
0.00160368 0.0380366 0.00218195
-0.0225655 0.00218195 -0.0742991

0.0428537 0.00122638 -0.0183625
0.00122638 0.0426558 0.00272714
-0.0183625 0.00272714 -0.0970535

0.0477568 0.000670374 -0.00860253
0.000670374 0.0463665 0.00314669
-0.00860253 0.00314669 -0.11202

0.0477568 2.56686e-05 0.00330637
2.56686e-05 0.0477568 0.00330637
0.00330637 0.00330637 -0.117222

0.0428537 -0.000626991 0.0141574
-0.000626991 0.0463656 0.00314755
0.0141574 0.00314755 -0.112037

0.0335737 -0.00120094 0.0209258
-0.00120094 0.0426553 0.00272788
0.0209258 0.00272788 -0.0970776

0.022334 -0.00160226 0.0193219
-0.00160226 0.0380376 0.0021805
0.0193219 0.0021805 -0.0742844

0.0116606 -0.00176904 0.0100603
-0.00176904 0.0351322 0.00181963
0.0100603 0.00181963 -0.0546214

0.0220328 0.0061633 -0.0169787
0.0061633 0.0318869 0.00599646
-0.0169787 0.00599646 -0.0527766

0.0327776 0.00657082 -0.0211887
0.00657082 0.0345733 0.00812449
-0.0211887 0.00812449 -0.0714818

0.0416612 0.0051122 -0.0172842
0.0051122 0.0385142 0.011213
-0.0172842 0.011213 -0.0928651

0.0463656 0.00248541 -0.00810123
0.00248541 0.041662 0.0133999
-0.00810123 0.0133999 -0.107087

0.0463656 -0.000626991 0.00314755
-0.000626991 0.0428537 0.0141574
0.00314755 0.0141574 -0.112037

0.0416612 -0.00353283 0.0134017
-0.00353283 0.0416612 0.0134017
0.0134017 0.0134017 -0.107102

0.0327776 -0.00550783 0.0197367
-0.00550783 0.0385139 0.0112142
0.0197367 0.0112142 -0.0928863

0.0220328 -0.00572035 0.0181604
-0.00572035 0.0345746 0.00812159
0.0181604 0.00812159 -0.0714696

0.0118903 -0.00385378 0.00935525
-0.00385378 0.0318878 0.00599304
0.00935525 0.00599304 -0.0527595

0.0211522 0.00876466 -0.0136284
0.00876466 0.025891 0.00815719
-0.0136284 0.00815719 -0.0472602

0.0306649 0.00960824 -0.0172906
0.00960824 0.028001 0.0115286
-0.0172906 0.0115286 -0.0632257

0.0385139 0.00748479 -0.0141592
0.00748479 0.0306649 0.0163341
-0.0141592 0.0163341 -0.0810313

0.0426553 0.00351529 -0.00661243
0.00351529 0.0327782 0.019735
-0.00661243 0.019735 -0.0928752

0.0426553 -0.00120094 0.00272788
-0.00120094 0.0335737 0.0209258
0.00272788 0.0209258 -0.0970776

0.0385139 -0.00550783 0.0112142
-0.00550783 0.0327776 0.0197367
0.0112142 0.0197367 -0.0928863

0.0306649 -0.00826952 0.0163356
-0.00826952 0.0306649 0.0163356
0.0163356 0.0163356 -0.0810471

0.0211522 -0.00814913 0.0147991
-0.00814913 0.0280023 0.0115257
0.0147991 0.0115257 -0.0632181

0.0124107 -0.00471458 0.00730782
-0.00471458 0.0258919 0.00815339
0.00730782 0.00815339 -0.0472485

0.0199277 0.00817126 -0.00897136
0.00817126 0.0185886 0.00675598
-0.00897136 0.00675598 -0.038522

0.0280023 0.00920778 -0.0118591
0.00920778 0.0199271 0.0100489
-0.0118591 0.0100489 -0.0506362

0.0345746 0.00706688 -0.0097653
0.00706688 0.0211523 0.0147983
-0.0097653 0.0147983 -0.0632086

0.0380376 0.00305709 -0.00440668
0.00305709 0.0220331 0.0181595
-0.00440668 0.0181595 -0.071463

0.0380376 -0.00160226 0.0021805
-0.00160226 0.022334 0.0193219
0.0021805 0.0193219 -0.0742844

0.0345746 -0.00572035 0.00812159
-0.00572035 0.0220328 0.0181604
0.00812159 0.0181604 -0.0714696

0.0280023 -0.00814913 0.0115257
-0.00814913 0.0211522 0.0147991
0.0115257 0.0147991 -0.0632181

0.0199277 -0.00750034 0.0100473
-0.00750034 0.0199277 0.0100473
0.0100473 0.0100473 -0.0506335

0.0127949 -0.00346908 0.00436292
-0.00346908 0.0185887 0.00675392
0.00436292 0.00675392 -0.0385161

0.0185887 0.00460097 -0.0057225
0.00460097 0.0124941 0.00235322
-0.0057225 0.00235322 -0.0292859

0.0258919 0.005085 -0.00803766
0.005085 0.0127953 0.00436373
-0.00803766 0.00436373 -0.0385167

0.0318878 0.00342257 -0.00669552
0.00342257 0.0124106 0.00730796
-0.00669552 0.00730796 -0.0472427

0.0351322 0.000866133 -0.00289203
0.000866133 0.0118901 0.00935505
-0.00289203 0.00935505 -0.0527558

0.0351322 -0.00176904 0.00181963
-0.00176904 0.0116606 0.0100603
0.00181963 0.0100603 -0.0546214

0.0318878 -0.00385378 0.00599304
-0.00385378 0.0118903 0.00935525
0.00599304 0.00935525 -0.0527595

0.0258919 -0.00471458 0.00815339
-0.00471458 0.0124107 0.00730782
0.00815339 0.00730782 -0.0472485

0.0185887 -0.00346908 0.00675392
-0.00346908 0.0127949 0.00436292
0.00675392 0.00436292 -0.0385161

0.0124932 -0.000387126 0.00235278
-0.000387126 0.0124932 0.00235278
0.00235278 0.00235278 -0.0292834

0.0165815 -0.0133777 -0.00646693
-0.0133777 0.0165815 -0.00646693
-0.00646693 -0.00646693 -0.0224153

0.0257145 -0.0152792 -0.00907408
-0.0152792 0.0178588 -0.0116873
-0.00907408 -0.0116873 -0.0320117

0.0333171 -0.0116384 -0.00696612
-0.0116384 0.0189411 -0.0192584
-0.00696612 -0.0192584 -0.0416557

0.0372806 -0.00505202 -0.00246692
-0.00505202 0.0198373 -0.0240511
-0.00246692 -0.0240511 -0.0472844

0.0372806 0.00244645 0.00278388
0.00244645 0.0201821 -0.0255648
0.00278388 -0.0255648 -0.0493343

0.0333171 0.00935156 0.00744248
0.00935156 0.019836 -0.0240531
0.00744248 -0.0240531 -0.0472883

0.0257145 0.0137674 0.0100397
0.0137674 0.0189403 -0.0192614
0.0100397 -0.0192614 -0.0416651

0.0165815 0.0127438 0.00798345
0.0127438 0.0178612 -0.0116856
0.00798345 -0.0116856 -0.0320092

0.00915302 0.00723155 0.00264274
0.00723155 0.0165829 -0.00646399
0.00264274 -0.00646399 -0.0224141

0.0178588 -0.0152792 -0.0116873
-0.0152792 0.0257145 -0.00907408
-0.0116873 -0.00907408 -0.0320117

0.0287599 -0.0174479 -0.0157357
-0.0174479 0.0287599 -0.0157357
-0.0157357 -0.0157357 -0.0468549

0.037908 -0.0135016 -0.0123002
-0.0135016 0.0327204 -0.0255065
-0.0123002 -0.0255065 -0.0636222

0.0425023 -0.0062302 -0.00496332
-0.0062302 0.0358792 -0.031392
-0.00496332 -0.031392 -0.0742669

0.0425023 0.00226638 0.00357965
0.00226638 0.0370718 -0.0333375
0.00357965 -0.0333375 -0.0777637

0.037908 0.0102323 0.0113621
0.0102323 0.0358768 -0.0313964
0.0113621 -0.0313964 -0.0742777

0.0287599 0.0154936 0.0161613
0.0154936 0.0327195 -0.0255116
0.0161613 -0.0255116 -0.0636425

0.0178588 0.0147514 0.01359
0.0147514 0.0287641 -0.0157313
0.01359 -0.0157313 -0.0468464

0.00851194 0.00835108 0.0057033
0.00835108 0.0257188 -0.0090684
0.0057033 -0.0090684 -0.0320036

0.0189411 -0.0116384 -0.0192584
-0.0116384 0.0333171 -0.00696612
-0.0192584 -0.00696612 -0.0416557

0.0327204 -0.0135016 -0.0255065
-0.0135016 0.037908 -0.0123002
-0.0255065 -0.0123002 -0.0636222

0.0444934 -0.0103194 -0.0203599
-0.0103194 0.0444934 -0.0203599
-0.0203599 -0.0203599 -0.0925326

0.0504629 -0.00467093 -0.00876984
-0.00467093 0.0495561 -0.0247585
-0.00876984 -0.0247585 -0.109752

0.0504629 0.00174639 0.00469491
0.00174639 0.0514078 -0.0260541
0.00469491 -0.0260541 -0.115533

0.0444934 0.0078074 0.0169444
0.0078074 0.0495532 -0.0247637
0.0169444 -0.0247637 -0.109779

0.0327204 0.011946 0.0252896
0.011946 0.0444919 -0.020365
0.0252896 -0.020365 -0.0925873

0.0189411 0.0112015 0.0219116
0.0112015 0.037912 -0.0122934
0.0219116 -0.0122934 -0.0635828

0.00696532 0.00562414 0.0103723
0.00562414 0.0333205 -0.00696024
0.0103723 -0.00696024 -0.0416345

0.0198373 -0.00505202 -0.0240511
-0.00505202 0.0372806 -0.00246692
-0.0240511 -0.00246692 -0.0472844

0.0358792 -0.0062302 -0.031392
-0.0062302 0.0425023 -0.00496332
-0.031392 -0.00496332 -0.0742669

0.0495561 -0.00467093 -0.0247585
-0.00467093 0.0504629 -0.00876984
-0.0247585 -0.00876984 -0.109752

0.0563327 -0.00199697 -0.0106134
-0.00199697 0.0563327 -0.0106134
-0.0106134 -0.0106134 -0.130032

0.0563327 0.000957842 0.00541276
0.000957842 0.0584151 -0.0110887
0.00541276 -0.0110887 -0.136318

0.0495561 0.00375425 0.0201538
0.00375425 0.0563303 -0.0106154
0.0201538 -0.0106154 -0.13007

0.0358792 0.0056493 0.0304449
0.0056493 0.0504608 -0.00877226
0.0304449 -0.00877226 -0.109833

0.0198373 0.00488633 0.0267866
0.00488633 0.0425052 -0.00496014
0.0267866 -0.00496014 -0.0742093

0.0055557 0.00160023 0.0129834
0.00160023 0.0372826 -0.00246483
0.0129834 -0.00246483 -0.0472494

0.0201821 0.00244645 -0.0255648
0.00244645 0.0372806 0.00278388
-0.0255648 0.00278388 -0.0493343

0.0370718 0.00226638 -0.0333375
0.00226638 0.0425023 0.00357965
-0.0333375 0.00357965 -0.0777637

0.0514078 0.00174639 -0.0260541
0.00174639 0.0504629 0.00469491
-0.0260541 0.00469491 -0.115533

0.0584151 0.000957842 -0.0110887
0.000957842 0.0563327 0.00541276
-0.0110887 0.00541276 -0.136318

0.0584151 8.53796e-05 0.00567431
8.53796e-05 0.0584151 0.00567431
0.00567431 0.00567431 -0.142724

0.0514078 -0.000811313 0.0210863
-0.000811313 0.0563303 0.00541575
0.0210863 0.00541575 -0.136358

0.0370718 -0.00165461 0.0321194
-0.00165461 0.0504608 0.00470007
0.0321194 0.00470007 -0.115627

0.0201821 -0.00226734 0.028287
-0.00226734 0.0425052 0.00357419
0.028287 0.00357419 -0.0776968

0.00502664 -0.00248204 0.0137555
-0.00248204 0.0372826 0.00278012
0.0137555 0.00278012 -0.0492956

0.019836 0.00935156 -0.0240531
0.00935156 0.0333171 0.00744248
-0.0240531 0.00744248 -0.0472883

0.0358768 0.0102323 -0.0313964
0.0102323 0.037908 0.0113621
-0.0313964 0.0113621 -0.0742777

0.0495532 0.0078074 -0.0247637
0.0078074 0.0444934 0.0169444
-0.0247637 0.0169444 -0.109779

0.0563303 0.00375425 -0.0106154
0.00375425 0.0495561 0.0201538
-0.0106154 0.0201538 -0.13007

0.0563303 -0.000811313 0.00541575
-0.000811313 0.0514078 0.0210863
0.00541575 0.0210863 -0.136358

0.0495532 -0.00525966 0.0201612
-0.00525966 0.0495532 0.0201612
0.0201612 0.0201612 -0.130108

0.0358768 -0.00863156 0.0304528
-0.00863156 0.0444919 0.0169536
0.0304528 0.0169536 -0.109859

0.019836 -0.00889348 0.0267903
-0.00889348 0.037912 0.0113513
0.0267903 0.0113513 -0.0742204

0.00555581 -0.00597308 0.0129842
-0.00597308 0.0333205 0.00743345
0.0129842 0.00743345 -0.0472535

0.0189403 0.0137674 -0.0192614
0.0137674 0.0257145 0.0100397
-0.0192614 0.0100397 -0.0416651

0.0327195 0.0154936 -0.0255116
0.0154936 0.0287599 0.0161613
-0.0255116 0.0161613 -0.0636425

0.0444919 0.011946 -0.020365
0.011946 0.0327204 0.0252896
-0.020365 0.0252896 -0.0925873

0.0504608 0.0056493 -0.00877226
0.0056493 0.0358792 0.0304449
-0.00877226 0.0304449 -0.109833

0.0504608 -0.00165461 0.00470007
-0.00165461 0.0370718 0.0321194
0.00470007 0.0321194 -0.115627

0.0444919 -0.00863156 0.0169536
-0.00863156 0.0358768 0.0304528
0.0169536 0.0304528 -0.109859

0.0327195 -0.0134883 0.0252995
-0.0134883 0.0327195 0.0252995
0.0252995 0.0252995 -0.0926413

0.0189403 -0.0132137 0.0219159
-0.0132137 0.0287641 0.0161495
0.0219159 0.0161495 -0.0636042

0.0069654 -0.00782983 0.0103732
-0.00782983 0.0257188 0.01003
0.0103732 0.01003 -0.0416441

0.0178612 0.0127438 -0.0116856
0.0127438 0.0165815 0.00798345
-0.0116856 0.00798345 -0.0320092

0.0287641 0.0147514 -0.0157313
0.0147514 0.0178588 0.01359
-0.0157313 0.01359 -0.0468464

0.037912 0.0112015 -0.0122934
0.0112015 0.0189411 0.0219116
-0.0122934 0.0219116 -0.0635828

0.0425052 0.00488633 -0.00496014
0.00488633 0.0198373 0.0267866
-0.00496014 0.0267866 -0.0742093

0.0425052 -0.00226734 0.00357419
-0.00226734 0.0201821 0.028287
0.00357419 0.028287 -0.0776968

0.037912 -0.00889348 0.0113513
-0.00889348 0.019836 0.0267903
0.0113513 0.0267903 -0.0742204

0.0287641 -0.0132137 0.0161495
-0.0132137 0.0189403 0.0219159
0.0161495 0.0219159 -0.0636042

0.0178612 -0.0120981 0.0135858
-0.0120981 0.0178612 0.0135858
0.0135858 0.0135858 -0.0468366

0.00851151 -0.0058831 0.00570148
-0.0058831 0.0165829 0.00797855
0.00570148 0.00797855 -0.0320009

0.0165829 0.00723155 -0.00646399
0.00723155 0.00915302 0.00264274
-0.00646399 0.00264274 -0.0224141

0.0257188 0.00835108 -0.0090684
0.00835108 0.00851194 0.0057033
-0.0090684 0.0057033 -0.0320036

0.0333205 0.00562414 -0.00696024
0.00562414 0.00696532 0.0103723
-0.00696024 0.0103723 -0.0416345

0.0372826 0.00160023 -0.00246483
0.00160023 0.0055557 0.0129834
-0.00246483 0.0129834 -0.0472494

0.0372826 -0.00248204 0.00278012
-0.00248204 0.00502664 0.0137555
0.00278012 0.0137555 -0.0492956

0.0333205 -0.00597308 0.00743345
-0.00597308 0.00555581 0.0129842
0.00743345 0.0129842 -0.0472535

0.0257188 -0.00782983 0.01003
-0.00782983 0.0069654 0.0103732
0.01003 0.0103732 -0.0416441

0.0165829 -0.0058831 0.00797855
-0.0058831 0.00851151 0.00570148
0.00797855 0.00570148 -0.0320009

0.0091518 -0.00114131 0.00264112
-0.00114131 0.0091518 0.00264112
0.00264112 0.00264112 -0.0224127

0.0136192 -0.0187993 -0.00527441
-0.0187993 0.0136192 -0.00527441
-0.00527441 -0.00527441 -0.0150948

0.0238708 -0.0224038 -0.00852437
-0.0224038 0.0141979 -0.0123679
-0.00852437 -0.0123679 -0.0228839

0.0323914 -0.0165539 -0.00562115
-0.0165539 0.0138991 -0.0232934
-0.00562115 -0.0232934 -0.0300059

0.036646 -0.00719314 -0.00107978
-0.00719314 0.0147429 -0.0287576
-0.00107978 -0.0287576 -0.0344925

0.036646 0.00289235 0.00392802
0.00289235 0.0151618 -0.0296157
0.00392802 -0.0296157 -0.0373787

0.0323914 0.0128527 0.0080588
0.0128527 0.0147365 -0.0287618
0.0080588 -0.0287618 -0.0344917

0.0238708 0.0203329 0.0108161
0.0203329 0.0138951 -0.0233001
0.0108161 -0.0233001 -0.030011

0.0136192 0.0185315 0.00732022
0.0185315 0.0142063 -0.0123666
0.00732022 -0.0123666 -0.0228832

0.00548927 0.0105427 0.00154115
0.0105427 0.0136261 -0.00527091
0.00154115 -0.00527091 -0.0150984

0.0141979 -0.0224038 -0.0123679
-0.0224038 0.0238708 -0.00852437
-0.0123679 -0.00852437 -0.0228839

0.0281006 -0.0270913 -0.0182522
-0.0270913 0.0281006 -0.0182522
-0.0182522 -0.0182522 -0.0386788

0.0398567 -0.0203109 -0.0134093
-0.0203109 0.0334762 -0.0372035
-0.0134093 -0.0372035 -0.0578751

0.0452782 -0.00925817 -0.00432834
-0.00925817 0.0382821 -0.0443999
-0.00432834 -0.0443999 -0.0705326

0.0452782 0.00261508 0.00540478
0.00261508 0.0401091 -0.0454091
0.00540478 -0.0454091 -0.0744253

0.0398567 0.0145699 0.0144143
0.0145699 0.03827 -0.0444146
0.0144143 -0.0444146 -0.0705438

0.0281006 0.0244977 0.0203554
0.0244977 0.0334728 -0.0372214
0.0203554 -0.0372214 -0.0578979

0.0141979 0.0226062 0.0149601
0.0226062 0.0281145 -0.0182386
0.0149601 -0.0182386 -0.0386668

0.00311148 0.0128333 0.00497397
0.0128333 0.0238848 -0.00851359
0.00497397 -0.00851359 -0.0228802

0.0138991 -0.0165539 -0.0232934
-0.0165539 0.0323914 -0.00562115
-0.0232934 -0.00562115 -0.0300059

0.0334762 -0.0203109 -0.0372035
-0.0203109 0.0398567 -0.0134093
-0.0372035 -0.0134093 -0.0578751

0.0515162 -0.013959 -0.0276128
-0.013959 0.0515162 -0.0276128
-0.0276128 -0.0276128 -0.110851

0.0586663 -0.00602098 -0.0101474
-0.00602098 0.0590549 -0.0318453
-0.0101474 -0.0318453 -0.132163

0.0586663 0.00196573 0.00735697
0.00196573 0.061666 -0.0315844
0.00735697 -0.0315844 -0.137747

0.0515162 0.010239 0.0235556
0.010239 0.0590458 -0.0318624
0.0235556 -0.0318624 -0.132211

0.0334762 0.0179965 0.0378157
0.0179965 0.0515037 -0.0276492
0.0378157 -0.0276492 -0.111104

0.0138991 0.016174 0.0296426
0.016174 0.0398713 -0.0133733
0.0296426 -0.0133733 -0.0576565

-0.000880497 0.00814701 0.0112068
0.00814701 0.0324029 -0.00560646
0.0112068 -0.00560646 -0.0299626

0.0147429 -0.00719314 -0.0287576
-0.00719314 0.036646 -0.00107978
-0.0287576 -0.00107978 -0.0344925

0.0382821 -0.00925817 -0.0443999
-0.00925817 0.0452782 -0.00432834
-0.0443999 -0.00432834 -0.0705326

0.0590549 -0.00602098 -0.0318453
-0.00602098 0.0586663 -0.0101474
-0.0318453 -0.0101474 -0.132163

0.0668168 -0.00230025 -0.0109952
-0.00230025 0.0668168 -0.0109952
-0.0109952 -0.0109952 -0.154567

0.0668168 0.00104479 0.00826238
0.00104479 0.0693332 -0.0106129
0.00826238 -0.0106129 -0.15837

0.0590549 0.00473298 0.0268404
0.00473298 0.0668118 -0.0110012
0.0268404 -0.0110012 -0.154627

0.0382821 0.0083908 0.0442907
0.0083908 0.0586567 -0.0101644
0.0442907 -0.0101644 -0.132509

0.0147429 0.00700341 0.0349188
0.00700341 0.045287 -0.00431253
0.0349188 -0.00431253 -0.0702613

-0.00365641 0.00239467 0.0129952
0.00239467 0.0366524 -0.00107455
0.0129952 -0.00107455 -0.0344106

0.0151618 0.00289235 -0.0296157
0.00289235 0.036646 0.00392802
-0.0296157 0.00392802 -0.0373787

0.0401091 0.00261508 -0.0454091
0.00261508 0.0452782 0.00540478
-0.0454091 0.00540478 -0.0744253

0.061666 0.00196573 -0.0315844
0.00196573 0.0586663 0.00735697
-0.0315844 0.00735697 -0.137747

0.0693332 0.00104479 -0.0106129
0.00104479 0.0668168 0.00826238
-0.0106129 0.00826238 -0.15837

0.0693332 0.000216243 0.00858638
0.000216243 0.0693332 0.00858638
0.00858638 0.00858638 -0.162646

0.061666 -0.00064265 0.0271196
-0.00064265 0.0668118 0.00826811
0.0271196 0.00826811 -0.158421

0.0401091 -0.00165539 0.0452403
-0.00165539 0.0586567 0.00738333
0.0452403 0.00738333 -0.138125

0.0151618 -0.00266317 0.0350434
-0.00266317 0.045287 0.005383
0.0350434 0.005383 -0.0741341

-0.00432624 -0.00297536 0.0128783
-0.00297536 0.0366524 0.00392016
0.0128783 0.00392016 -0.0373009

0.0147365 0.0128527 -0.0287618
0.0128527 0.0323914 0.0080588
-0.0287618 0.0080588 -0.0344917

0.03827 0.0145699 -0.0444146
0.0145699 0.0398567 0.0144143
-0.0444146 0.0144143 -0.0705438

0.0590458 0.010239 -0.0318624
0.010239 0.0515162 0.0235556
-0.0318624 0.0235556 -0.132211

0.0668118 0.00473298 -0.0110012
0.00473298 0.0590549 0.0268404
-0.0110012 0.0268404 -0.154627

0.0668118 -0.00064265 0.00826811
-0.00064265 0.061666 0.0271196
0.00826811 0.0271196 -0.158421

0.0590458 -0.00642941 0.0268614
-0.00642941 0.0590458 0.0268614
0.0268614 0.0268614 -0.154687

0.03827 -0.0120906 0.0443187
-0.0120906 0.0515037 0.0236108
0.0443187 0.0236108 -0.132554

0.0147365 -0.0123952 0.0349299
-0.0123952 0.0398713 0.0143658
0.0349299 0.0143658 -0.0702736

-0.0036576 -0.00820552 0.0129958
-0.00820552 0.0324029 0.00803537
0.0129958 0.00803537 -0.0344109

0.0138951 0.0203329 -0.0233001
0.0203329 0.0238708 0.0108161
-0.0233001 0.0108161 -0.030011

0.0334728 0.0244977 -0.0372214
0.0244977 0.0281006 0.0203554
-0.0372214 0.0203554 -0.0578979

0.0515037 0.0179965 -0.0276492
0.0179965 0.0334762 0.0378157
-0.0276492 0.0378157 -0.111104

0.0586567 0.0083908 -0.0101644
0.0083908 0.0382821 0.0442907
-0.0101644 0.0442907 -0.132509

0.0586567 -0.00165539 0.00738333
-0.00165539 0.0401091 0.0452403
0.00738333 0.0452403 -0.138125

0.0515037 -0.0120906 0.0236108
-0.0120906 0.03827 0.0443187
0.0236108 0.0443187 -0.132554

0.0334728 -0.0217191 0.0378891
-0.0217191 0.0334728 0.0378891
0.0378891 0.0378891 -0.111342

0.0138951 -0.0204334 0.0296563
-0.0204334 0.0281145 0.020281
0.0296563 0.020281 -0.0576951

-0.000882112 -0.0120709 0.0112105
-0.0120709 0.0238848 0.0107929
0.0112105 0.0107929 -0.0299691

0.0142063 0.0185315 -0.0123666
0.0185315 0.0136192 0.00732022
-0.0123666 0.00732022 -0.0228832

0.0281145 0.0226062 -0.0182386
0.0226062 0.0141979 0.0149601
-0.0182386 0.0149601 -0.0386668

0.0398713 0.016174 -0.0133733
0.016174 0.0138991 0.0296426
-0.0133733 0.0296426 -0.0576565

0.045287 0.00700341 -0.00431253
0.00700341 0.0147429 0.0349188
-0.00431253 0.0349188 -0.0702613

0.045287 -0.00266317 0.005383
-0.00266317 0.0151618 0.0350434
0.005383 0.0350434 -0.0741341

0.0398713 -0.0123952 0.0143658
-0.0123952 0.0147365 0.0349299
0.0143658 0.0349299 -0.0702736

0.0281145 -0.0204334 0.020281
-0.0204334 0.0138951 0.0296563
0.020281 0.0296563 -0.0576951

0.0142063 -0.0182122 0.0149496
-0.0182122 0.0142063 0.0149496
0.0149496 0.0149496 -0.0386397

0.00311282 -0.0090746 0.00497061
-0.0090746 0.0136261 0.00731076
0.00497061 0.00731076 -0.0228778

0.0136261 0.0105427 -0.00527091
0.0105427 0.00548927 0.00154115
-0.00527091 0.00154115 -0.0150984

0.0238848 0.0128333 -0.00851359
0.0128333 0.00311148 0.00497397
-0.00851359 0.00497397 -0.0228802

0.0324029 0.00814701 -0.00560646
0.00814701 -0.000880497 0.0112068
-0.00560646 0.0112068 -0.0299626

0.0366524 0.00239467 -0.00107455
0.00239467 -0.00365641 0.0129952
-0.00107455 0.0129952 -0.0344106

0.0366524 -0.00297536 0.00392016
-0.00297536 -0.00432624 0.0128783
0.00392016 0.0128783 -0.0373009

0.0324029 -0.00820552 0.00803537
-0.00820552 -0.0036576 0.0129958
0.00803537 0.0129958 -0.0344109

0.0238848 -0.0120709 0.0107929
-0.0120709 -0.000882112 0.0112105
0.0107929 0.0112105 -0.0299691

0.0136261 -0.0090746 0.00731076
-0.0090746 0.00311282 0.00497061
0.00731076 0.00497061 -0.0228778

0.00548903 -0.00238593 0.00153909
-0.00238593 0.00548903 0.00153909
0.00153909 0.00153909 -0.0151015

0.00957102 -0.0224387 -0.00159107
-0.0224387 0.00957102 -0.00159107
-0.00159107 -0.00159107 -0.00777312

0.0193441 -0.0283532 -0.0054526
-0.0283532 0.00916178 -0.00810158
-0.0054526 -0.00810158 -0.0119412

0.0275218 -0.0192064 -0.00197798
-0.0192064 0.00169952 -0.0197275
-0.00197798 -0.0197275 -0.0102916

0.0309532 -0.0078439 0.00183435
-0.0078439 0.0032555 -0.0242465
0.00183435 -0.0242465 -0.0152238

0.0309532 0.00179013 0.00558097
0.00179013 0.00516539 -0.0244287
0.00558097 -0.0244287 -0.0177538

0.0275218 0.0141201 0.00642523
0.0141201 0.00323317 -0.0242609
0.00642523 -0.0242609 -0.0152165

0.0193441 0.0260311 0.00892384
0.0260311 0.00167118 -0.0197162
0.00892384 -0.0197162 -0.0102765

0.00957102 0.0227116 0.00444956
0.0227116 0.00919721 -0.00811768
0.00444956 -0.00811768 -0.0119493

0.00230741 0.0126783 -0.000806151
0.0126783 0.00959339 -0.00158999
-0.000806151 -0.00158999 -0.00777411

0.00916178 -0.0283532 -0.00810158
-0.0283532 0.0193441 -0.0054526
-0.00810158 -0.0054526 -0.0119412

0.0243645 -0.041983 -0.0161245
-0.041983 0.0243645 -0.0161245
-0.0161245 -0.0161245 -0.0274149

0.0378705 -0.0274931 -0.00810259
-0.0274931 0.0326354 -0.0562048
-0.00810259 -0.0562048 -0.0345321

0.0431185 -0.0108769 0.000368219
-0.0108769 0.0399156 -0.0556441
0.000368219 -0.0556441 -0.0511449

0.0431185 0.000420798 0.00763185
0.000420798 0.0422419 -0.0580101
0.00763185 -0.0580101 -0.0528458

0.0378705 0.016717 0.0148673
0.016717 0.0398775 -0.0556926
0.0148673 -0.0556926 -0.0511931

0.0243645 0.0380643 0.0191543
0.0380643 0.0326372 -0.056196
0.0191543 -0.056196 -0.0342448

0.00916178 0.0322908 0.0108639
0.0322908 0.0243729 -0.0161521
0.0108639 -0.0161521 -0.0276535

-0.00237538 0.0167133 -0.000171614
0.0167133 0.0193907 -0.00542145
-0.000171614 -0.00542145 -0.0119359

0.00169952 -0.0192064 -0.0197275
-0.0192064 0.0275218 -0.00197798
-0.0197275 -0.00197798 -0.0102916

0.0326354 -0.0274931 -0.0562048
-0.0274931 0.0378705 -0.00810259
-0.0562048 -0.00810259 -0.0345321

0.0599274 -0.0139692 -0.0370238
-0.0139692 0.0599274 -0.0370238
-0.0370238 -0.0370238 -0.156535

0.0642808 -0.00421405 -0.00578636
-0.00421405 0.0695026 -0.0294007
-0.00578636 -0.0294007 -0.16436

0.0642808 0.000229388 0.00987141
0.000229388 0.0709727 -0.0284482
0.00987141 -0.0284482 -0.157733

0.0599274 0.00923534 0.0261247
0.00923534 0.0694902 -0.0294441
0.0261247 -0.0294441 -0.164429

0.0326354 0.0240952 0.060506
0.0240952 0.0598689 -0.0372116
0.060506 -0.0372116 -0.158219

0.00169952 0.0185469 0.0341445
0.0185469 0.0379091 -0.00791823
0.0341445 -0.00791823 -0.0328867

-0.01158 0.00882743 0.00307056
0.00882743 0.0275543 -0.00194299
0.00307056 -0.00194299 -0.0101864

0.0032555 -0.0078439 -0.0242465
-0.0078439 0.0309532 0.00183435
-0.0242465 0.00183435 -0.0152238

0.0399156 -0.0108769 -0.0556441
-0.0108769 0.0431185 0.000368219
-0.0556441 0.000368219 -0.0511449

0.0695026 -0.00421405 -0.0294007
-0.00421405 0.0642808 -0.00578636
-0.0294007 -0.00578636 -0.16436

0.0722746 -0.000761993 -0.00110389
-0.000761993 0.0722746 -0.00110389
-0.00110389 -0.00110389 -0.164423

0.0722746 0.000216887 0.010211
0.000216887 0.0733653 -0.000188236
0.010211 -0.000188236 -0.154795

0.0695026 0.00348951 0.025832
0.00348951 0.0722712 -0.00111306
0.025832 -0.00111306 -0.164397

0.0399156 0.00982244 0.0592582
0.00982244 0.0642481 -0.00585047
0.0592582 -0.00585047 -0.165799

0.0032555 0.00692924 0.0315057
0.00692924 0.0431413 0.000426305
0.0315057 0.000426305 -0.0498261

-0.0145469 0.00205717 0.00115662
0.00205717 0.0309656 0.00184172
0.00115662 0.00184172 -0.0151174

0.00516539 0.00179013 -0.0244287
0.00179013 0.0309532 0.00558097
-0.0244287 0.00558097 -0.0177538

0.0422419 0.000420798 -0.0580101
0.000420798 0.0431185 0.00763185
-0.0580101 0.00763185 -0.0528458

0.0709727 0.000229388 -0.0284482
0.000229388 0.0642808 0.00987141
-0.0284482 0.00987141 -0.157733

0.0733653 0.000216887 -0.000188236
0.000216887 0.0722746 0.010211
-0.000188236 0.010211 -0.154795

0.0733653 0.000328725 0.0109855
0.000328725 0.0733653 0.0109855
0.0109855 0.0109855 -0.145174

0.0709727 0.000516208 0.0248974
0.000516208 0.0722712 0.0102146
0.0248974 0.0102146 -0.154754

0.0422419 0.000851061 0.0616055
0.000851061 0.0642481 0.00994793
0.0616055 0.00994793 -0.158962

0.00516539 -0.0007949 0.0324781
-0.0007949 0.0431413 0.00756593
0.0324781 0.00756593 -0.0517438

-0.0140895 -0.00202539 0.00105539
-0.00202539 0.0309656 0.00557573
0.00105539 0.00557573 -0.0176529

0.00323317 0.0141201 -0.0242609
0.0141201 0.0275218 0.00642523
-0.0242609 0.00642523 -0.0152165

0.0398775 0.016717 -0.0556926
0.016717 0.0378705 0.0148673
-0.0556926 0.0148673 -0.0511931

0.0694902 0.00923534 -0.0294441
0.00923534 0.0599274 0.0261247
-0.0294441 0.0261247 -0.164429

0.0722712 0.00348951 -0.00111306
0.00348951 0.0695026 0.025832
-0.00111306 0.025832 -0.164397

0.0722712 0.000516208 0.0102146
0.000516208 0.0709727 0.0248974
0.0102146 0.0248974 -0.154754

0.0694902 -0.00440633 0.025854
-0.00440633 0.0694902 0.025854
0.025854 0.025854 -0.164368

0.0398775 -0.0128728 0.0593368
-0.0128728 0.0598689 0.0263763
0.0593368 0.0263763 -0.165859

0.00323317 -0.013246 0.0315387
-0.013246 0.0379091 0.0146636
0.0315387 0.0146636 -0.0498842

-0.0145491 -0.00863633 0.00115557
-0.00863633 0.0275543 0.00637482
0.00115557 0.00637482 -0.0151143

0.00167118 0.0260311 -0.0197162
0.0260311 0.0193441 0.00892384
-0.0197162 0.00892384 -0.0102765

0.0326372 0.0380643 -0.056196
0.0380643 0.0243645 0.0191543
-0.056196 0.0191543 -0.0342448

0.0598689 0.0240952 -0.0372116
0.0240952 0.0326354 0.060506
-0.0372116 0.060506 -0.158219

0.0642481 0.00982244 -0.00585047
0.00982244 0.0399156 0.0592582
-0.00585047 0.0592582 -0.165799

0.0642481 0.000851061 0.00994793
0.000851061 0.0422419 0.0616055
0.00994793 0.0616055 -0.158962

0.0598689 -0.0128728 0.0263763
-0.0128728 0.0398775 0.0593368
0.0263763 0.0593368 -0.165859

0.0326372 -0.0337102 0.0611416
-0.0337102 0.0326372 0.0611416
0.0611416 0.0611416 -0.159672

0.00167118 -0.0295841 0.0341499
-0.0295841 0.0243729 0.0185348
0.0341499 0.0185348 -0.0328366

-0.0115942 -0.0158765 0.0030649
-0.0158765 0.0193907 0.00886067
0.0030649 0.00886067 -0.0101761

0.00919721 0.0227116 -0.00811768
0.0227116 0.00957102 0.00444956
-0.00811768 0.00444956 -0.0119493

0.0243729 0.0322908 -0.0161521
0.0322908 0.00916178 0.0108639
-0.0161521 0.0108639 -0.0276535

0.0379091 0.0185469 -0.00791823
0.0185469 0.00169952 0.0341445
-0.00791823 0.0341445 -0.0328867

0.0431413 0.00692924 0.000426305
0.00692924 0.0032555 0.0315057
0.000426305 0.0315057 -0.0498261

0.0431413 -0.0007949 0.00756593
-0.0007949 0.00516539 0.0324781
0.00756593 0.0324781 -0.0517438

0.0379091 -0.013246 0.0146636
-0.013246 0.00323317 0.0315387
0.0146636 0.0315387 -0.0498842

0.0243729 -0.0295841 0.0185348
-0.0295841 0.00167118 0.0341499
0.0185348 0.0341499 -0.0328366

0.00919721 -0.0228125 0.0108649
-0.0228125 0.00919721 0.0108649
0.0108649 0.0108649 -0.0276497

-0.00236414 -0.0112203 -0.000166797
-0.0112203 0.00959339 0.00443126
-0.000166797 0.00443126 -0.0119368

0.00959339 0.0126783 -0.00158999
0.0126783 0.00230741 -0.000806151
-0.00158999 -0.000806151 -0.00777411

0.0193907 0.0167133 -0.00542145
0.0167133 -0.00237538 -0.000171614
-0.00542145 -0.000171614 -0.0119359

0.0275543 0.00882743 -0.00194299
0.00882743 -0.01158 0.00307056
-0.00194299 0.00307056 -0.0101864

0.0309656 0.00205717 0.00184172
0.00205717 -0.0145469 0.00115662
0.00184172 0.00115662 -0.0151174

0.0309656 -0.00202539 0.00557573
-0.00202539 -0.0140895 0.00105539
0.00557573 0.00105539 -0.0176529

0.0275543 -0.00863633 0.00637482
-0.00863633 -0.0145491 0.00115557
0.00637482 0.00115557 -0.0151143

0.0193907 -0.0158765 0.00886067
-0.0158765 -0.0115942 0.0030649
0.00886067 0.0030649 -0.0101761

0.00959339 -0.0112203 0.00443126
-0.0112203 -0.00236414 -0.000166797
0.00443126 -0.000166797 -0.0119368

0.00231122 -0.00303885 -0.000803094
-0.00303885 0.00231122 -0.000803094
-0.000803094 -0.000803094 -0.00777358

0.0038504 -0.0166108 0.00327654
-0.0166108 0.0038504 0.00327654
0.00327654 0.00327654 -0.00402922

0.0123135 -0.0230805 0.00463061
-0.0230805 0.00370289 -0.00110173
0.00463061 -0.00110173 -0.00658565

0.0186756 -0.0106028 0.00290722
-0.0106028 -0.0265103 -0.00431837
0.00290722 -0.00431837 -0.00648901

0.0162195 -0.00500004 0.00368948
-0.00500004 -0.0104734 -0.0120801
0.00368948 -0.0120801 -0.00994061

0.0162195 -0.000479736 0.00683736
-0.000479736 -0.0100942 -0.011685
0.00683736 -0.011685 -0.00875038

0.0186756 0.00781373 0.0059249
0.00781373 -0.0105561 -0.0121201
0.0059249 -0.0121201 -0.0099384

0.0123135 0.0200351 0.00105551
0.0200351 -0.0265898 -0.00421387
0.00105551 -0.00421387 -0.00652027

0.0038504 0.0168677 -0.00279487
0.0168677 0.00379774 -0.00119174
-0.00279487 -0.00119174 -0.00655746

0.000532622 0.00956774 -0.00373269
0.00956774 0.00391687 0.00327879
-0.00373269 0.00327879 -0.00399607

0.00370289 -0.0230805 -0.00110173
-0.0230805 0.0123135 0.00463061
-0.00110173 0.00463061 -0.00658565

0.0174566 -0.0614388 0.000655365
-0.0614388 0.0174566 0.000655365
0.000655365 0.000655365 -0.0199736

0.0247807 -0.0316053 0.00236441
-0.0316053 0.0306896 -0.0641773
0.00236441 -0.0641773 -0.00625011

0.0271908 -0.0122689 0.00544203
-0.0122689 0.040567 -0.0635669
0.00544203 -0.0635669 -0.0221946

0.0271908 -0.00192098 0.00868776
-0.00192098 0.0418639 -0.0635588
0.00868776 -0.0635588 -0.0217744

0.0247807 0.00361564 0.01738
0.00361564 0.0405034 -0.0634847
0.01738 -0.0634847 -0.0221648

0.0174566 0.0622869 0.0101564
0.0622869 0.0286586 -0.0640163
0.0101564 -0.0640163 -0.00552669

0.00370289 0.038742 -0.00133924
0.038742 0.0194346 0.000304766
-0.00133924 0.000304766 -0.0207299

-0.0039135 0.0153777 -0.00924863
0.0153777 0.0124659 0.00467426
-0.00924863 0.00467426 -0.0065386

-0.0265103 -0.0106028 -0.00431837
-0.0106028 0.0186756 0.00290722
-0.00431837 0.00290722 -0.00648901

0.0306896 -0.0316053 -0.0641773
-0.0316053 0.0247807 0.00236441
-0.0641773 0.00236441 -0.00625011

0.0815888 0.0105604 0.0150345
0.0105604 0.0815888 0.0150345
0.0150345 0.0150345 -0.228201

0.0559557 0.00182408 0.0194698
0.00182408 0.0759377 0.018634
0.0194698 0.018634 -0.16481

0.0559557 -0.000867458 0.00652371
-0.000867458 0.0773683 0.0200633
0.00652371 0.0200633 -0.152869

0.0815888 -0.00772717 0.00689859
-0.00772717 0.0759361 0.0186519
0.00689859 0.0186519 -0.165277

0.0306896 0.0270546 0.05926
0.0270546 0.0814724 0.0145931
0.05926 0.0145931 -0.233198

-0.0265103 0.00290241 -0.0150206
0.00290241 0.0248072 0.00274487
-0.0150206 0.00274487 -0.000764325

-0.0154668 0.00471516 -0.0186973
0.00471516 0.018757 0.00295062
-0.0186973 0.00295062 -0.00633231

-0.0104734 -0.00500004 -0.0120801
-0.00500004 0.0162195 0.00368948
-0.0120801 0.00368948 -0.00994061

0.040567 -0.0122689 -0.0635669
-0.0122689 0.0271908 0.00544203
-0.0635669 0.00544203 -0.0221946

0.0759377 0.00182408 0.018634
0.00182408 0.0559557 0.0194698
0.018634 0.0194698 -0.16481

0.0540459 0.00232381 0.0231241
0.00232381 0.0540459 0.0231241
0.0231241 0.0231241 -0.0948203

0.0540459 -0.00120199 0.00576593
-0.00120199 0.0518078 0.0225391
0.00576593 0.0225391 -0.0847407

0.0759377 -0.00253751 0.00880335
-0.00253751 0.0540462 0.0231173
0.00880335 0.0231173 -0.0953263

0.040567 0.0117858 0.0670656
0.0117858 0.0559012 0.0194688
0.0670656 0.0194688 -0.1663

-0.0104734 0.00483907 -0.00561574
0.00483907 0.0272363 0.00544702
-0.00561574 0.00544702 -0.0200534

-0.0146144 -0.000342499 -0.0205788
-0.000342499 0.016226 0.00369079
-0.0205788 0.00369079 -0.00988125

-0.0100942 -0.000479736 -0.011685
-0.000479736 0.0162195 0.00683736
-0.011685 0.00683736 -0.00875038

0.0418639 -0.00192098 -0.0635588
-0.00192098 0.0271908 0.00868776
-0.0635588 0.00868776 -0.0217744

0.0773683 -0.000867458 0.0200633
-0.000867458 0.0559557 0.00652371
0.0200633 0.00652371 -0.152869

0.0518078 -0.00120199 0.0225391
-0.00120199 0.0540459 0.00576593
0.0225391 0.00576593 -0.0847407

0.0518078 8.56793e-05 0.00663711
8.56793e-05 0.0518078 0.00663711
0.00663711 0.00663711 -0.0731257

0.0773683 0.0015846 0.00765296
0.0015846 0.0540462 0.00577267
0.00765296 0.00577267 -0.0851998

0.0418639 0.00273479 0.0669463
0.00273479 0.0559012 0.00647823
0.0669463 0.00647823 -0.153954

-0.0100942 0.000698015 -0.00238598
0.000698015 0.0272363 0.00872322
-0.00238598 0.00872322 -0.0200344

-0.0127662 3.82546e-05 -0.0200401
3.82546e-05 0.016226 0.00684115
-0.0200401 0.00684115 -0.0087304

-0.0105561 0.00781373 -0.0121201
0.00781373 0.0186756 0.0059249
-0.0121201 0.0059249 -0.0099384

0.0405034 0.00361564 -0.0634847
0.00361564 0.0247807 0.01738
-0.0634847 0.01738 -0.0221648

0.0759361 -0.00772717 0.0186519
-0.00772717 0.0815888 0.00689859
0.0186519 0.00689859 -0.165277

0.0540462 -0.00253751 0.0231173
-0.00253751 0.0759377 0.00880335
0.0231173 0.00880335 -0.0953263

0.0540462 0.0015846 0.00577267
0.0015846 0.0773683 0.00765296
0.00577267 0.00765296 -0.0851998

0.0759361 0.00490765 0.00879408
0.00490765 0.0759361 0.00879408
0.00879408 0.00879408 -0.0958305

0.0405034 0.00164744 0.066905
0.00164744 0.0814724 0.0072065
0.066905 0.0072065 -0.166634

-0.0105561 0.000440099 -0.00554558
0.000440099 0.0248072 0.0171486
-0.00554558 0.0171486 -0.0201503

-0.0146223 -0.00306957 -0.0205798
-0.00306957 0.018757 0.00586037
-0.0205798 0.00586037 -0.00988809

-0.0265898 0.0200351 -0.00421387
0.0200351 0.0123135 0.00105551
-0.00421387 0.00105551 -0.00652027

0.0286586 0.0622869 -0.0640163
0.0622869 0.0174566 0.0101564
-0.0640163 0.0101564 -0.00552669

0.0814724 0.0270546 0.0145931
0.0270546 0.0306896 0.05926
0.0145931 0.05926 -0.233198

0.0559012 0.0117858 0.0194688
0.0117858 0.040567 0.0670656
0.0194688 0.0670656 -0.1663

0.0559012 0.00273479 0.00647823
0.00273479 0.0418639 0.0669463
0.00647823 0.0669463 -0.153954

0.0814724 0.00164744 0.0072065
0.00164744 0.0405034 0.066905
0.0072065 0.066905 -0.166634

0.0286586 -0.0502368 0.0637922
-0.0502368 0.0286586 0.0637922
0.0637922 0.0637922 -0.237391

-0.0265898 -0.0346663 -0.0152946
-0.0346663 0.0194346 0.00579343
-0.0152946 0.00579343 -0.000975873

-0.0154752 -0.0144342 -0.0187282
-0.0144342 0.0124659 0.00114695
-0.0187282 0.00114695 -0.00637277

0.00379774 0.0168677 -0.00119174
0.0168677 0.0038504 -0.00279487
-0.00119174 -0.00279487 -0.00655746

0.0194346 0.038742 0.000304766
0.038742 0.00370289 -0.00133924
0.000304766 -0.00133924 -0.0207299

0.0248072 0.00290241 0.00274487
0.00290241 -0.0265103 -0.0150206
0.00274487 -0.0150206 -0.000764325

0.0272363 0.00483907 0.00544702
0.00483907 -0.0104734 -0.00561574
0.00544702 -0.00561574 -0.0200534

0.0272363 0.000698015 0.00872322
0.000698015 -0.0100942 -0.00238598
0.00872322 -0.00238598 -0.0200344

0.0248072 0.000440099 0.0171486
0.000440099 -0.0105561 -0.00554558
0.0171486 -0.00554558 -0.0201503

0.0194346 -0.0346663 0.00579343
-0.0346663 -0.0265898 -0.0152946
0.00579343 -0.0152946 -0.000975873

0.00379774 -0.0166634 -0.00107387
-0.0166634 0.00379774 -0.00107387
-0.00107387 -0.00107387 -0.0204355

-0.00390464 -0.00929402 -0.0092237
-0.00929402 0.00391687 -0.0028283
-0.0092237 -0.0028283 -0.00649283

0.00391687 0.00956774 0.00327879
0.00956774 0.000532622 -0.00373269
0.00327879 -0.00373269 -0.00399607

0.0124659 0.0153777 0.00467426
0.0153777 -0.0039135 -0.00924863
0.00467426 -0.00924863 -0.0065386

0.018757 0.00471516 0.00295062
0.00471516 -0.0154668 -0.0186973
0.00295062 -0.0186973 -0.00633231

0.016226 -0.000342499 0.00369079
-0.000342499 -0.0146144 -0.0205788
0.00369079 -0.0205788 -0.00988125

0.016226 3.82546e-05 0.00684115
3.82546e-05 -0.0127662 -0.0200401
0.00684115 -0.0200401 -0.0087304

0.018757 -0.00306957 0.00586037
-0.00306957 -0.0146223 -0.0205798
0.00586037 -0.0205798 -0.00988809

0.0124659 -0.0144342 0.00114695
-0.0144342 -0.0154752 -0.0187282
0.00114695 -0.0187282 -0.00637277

0.00391687 -0.00929402 -0.0028283
-0.00929402 -0.00390464 -0.0092237
-0.0028283 -0.0092237 -0.00649283

0.000539673 -0.00256784 -0.00372384
-0.00256784 0.000539673 -0.00372384
-0.00372384 -0.00372384 -0.00396168


CELL_DATA 1000
TENSORS stress float
-0.196618 0.0131508 -0.0658839
0.0131508 -0.196618 -0.0658839
-0.0658839 -0.0658839 -0.346216

-0.166585 0.00553687 -0.0548873
0.00553687 -0.147212 -0.0699273
-0.0548873 -0.0699273 -0.282447

-0.177136 0.00361285 -0.0378695
0.00361285 -0.146997 -0.0735453
-0.0378695 -0.0735453 -0.284063

-0.180305 0.00223542 -0.0230141
0.00223542 -0.146184 -0.0763716
-0.0230141 -0.0763716 -0.285481

-0.182702 0.000761874 -0.00772224
0.000761874 -0.147093 -0.0778171
-0.00772224 -0.0778171 -0.288105

-0.182702 -0.000761874 0.00772224
-0.000761874 -0.147093 -0.0778171
0.00772224 -0.0778171 -0.288105

-0.180305 -0.00223542 0.0230141
-0.00223542 -0.146184 -0.0763716
0.0230141 -0.0763716 -0.285481

-0.177136 -0.00361285 0.0378695
-0.00361285 -0.146997 -0.0735453
0.0378695 -0.0735453 -0.284063

-0.166585 -0.00553687 0.0548873
-0.00553687 -0.147212 -0.0699273
0.0548873 -0.0699273 -0.282447

-0.196618 -0.0131508 0.0658839
-0.0131508 -0.196618 -0.0658839
0.0658839 -0.0658839 -0.346216

-0.147212 0.00553687 -0.0699273
0.00553687 -0.166585 -0.0548873
-0.0699273 -0.0548873 -0.282447

-0.112271 0.00253418 -0.0580183
0.00253418 -0.112271 -0.0580183
-0.0580183 -0.0580183 -0.211001

-0.125297 0.0010969 -0.0396588
0.0010969 -0.116325 -0.0604255
-0.0396588 -0.0604255 -0.214165

-0.128664 0.000523492 -0.0238172
0.000523492 -0.115615 -0.0630534
-0.0238172 -0.0630534 -0.214706

-0.130993 0.000159982 -0.00794567
0.000159982 -0.116372 -0.0645336
-0.00794567 -0.0645336 -0.216688

-0.130993 -0.000159982 0.00794567
-0.000159982 -0.116372 -0.0645336
0.00794567 -0.0645336 -0.216688

-0.128664 -0.000523492 0.0238172
-0.000523492 -0.115615 -0.0630534
0.0238172 -0.0630534 -0.214706

-0.125297 -0.0010969 0.0396588
-0.0010969 -0.116325 -0.0604255
0.0396588 -0.0604255 -0.214165

-0.112271 -0.00253418 0.0580183
-0.00253418 -0.112271 -0.0580183
0.0580183 -0.0580183 -0.211001

-0.147212 -0.00553687 0.0699273
-0.00553687 -0.166585 -0.0548873
0.0699273 -0.0548873 -0.282447

-0.146997 0.00361285 -0.0735453
0.00361285 -0.177136 -0.0378695
-0.0735453 -0.0378695 -0.284063

-0.116325 0.0010969 -0.0604255
0.0010969 -0.125297 -0.0396588
-0.0604255 -0.0396588 -0.214165

-0.130347 0.000199434 -0.0413333
0.000199434 -0.130347 -0.0413333
-0.0413333 -0.0413333 -0.217801

-0.13535 -7.66937e-05 -0.0247502
-7.66937e-05 -0.131358 -0.0431888
-0.0247502 -0.0431888 -0.219773

-0.138423 -5.18945e-05 -0.00824112
-5.18945e-05 -0.132805 -0.0442955
-0.00824112 -0.0442955 -0.222409

-0.138423 5.18945e-05 0.00824112
5.18945e-05 -0.132805 -0.0442955
0.00824112 -0.0442955 -0.222409

-0.13535 7.66937e-05 0.0247502
7.66937e-05 -0.131358 -0.0431888
0.0247502 -0.0431888 -0.219773

-0.130347 -0.000199434 0.0413333
-0.000199434 -0.130347 -0.0413333
0.0413333 -0.0413333 -0.217801

-0.116325 -0.0010969 0.0604255
-0.0010969 -0.125297 -0.0396588
0.0604255 -0.0396588 -0.214165

-0.146997 -0.00361285 0.0735453
-0.00361285 -0.177136 -0.0378695
0.0735453 -0.0378695 -0.284063

-0.146184 0.00223542 -0.0763716
0.00223542 -0.180305 -0.0230141
-0.0763716 -0.0230141 -0.285481

-0.115615 0.000523492 -0.0630534
0.000523492 -0.128664 -0.0238172
-0.0630534 -0.0238172 -0.214706

-0.131358 -7.66937e-05 -0.0431888
-7.66937e-05 -0.13535 -0.0247502
-0.0431888 -0.0247502 -0.219773

-0.137098 -0.000182779 -0.0258876
-0.000182779 -0.137098 -0.0258876
-0.0258876 -0.0258876 -0.222501

-0.140667 -8.2881e-05 -0.00862126
-8.2881e-05 -0.139041 -0.0265727
-0.00862126 -0.0265727 -0.225683

-0.140667 8.2881e-05 0.00862126
8.2881e-05 -0.139041 -0.0265727
0.00862126 -0.0265727 -0.225683

-0.137098 0.000182779 0.0258876
0.000182779 -0.137098 -0.0258876
0.0258876 -0.0258876 -0.222501

-0.131358 7.66937e-05 0.0431888
7.66937e-05 -0.13535 -0.0247502
0.0431888 -0.0247502 -0.219773

-0.115615 -0.000523492 0.0630534
-0.000523492 -0.128664 -0.0238172
0.0630534 -0.0238172 -0.214706

-0.146184 -0.00223542 0.0763716
-0.00223542 -0.180305 -0.0230141
0.0763716 -0.0230141 -0.285481

-0.147093 0.000761874 -0.0778171
0.000761874 -0.182702 -0.00772224
-0.0778171 -0.00772224 -0.288105

-0.116372 0.000159982 -0.0645336
0.000159982 -0.130993 -0.00794567
-0.0645336 -0.00794567 -0.216688

-0.132805 -5.18945e-05 -0.0442955
-5.18945e-05 -0.138423 -0.00824112
-0.0442955 -0.00824112 -0.222409

-0.139041 -8.2881e-05 -0.0265727
-8.2881e-05 -0.140667 -0.00862126
-0.0265727 -0.00862126 -0.225683

-0.142854 -3.50311e-05 -0.0088534
-3.50311e-05 -0.142854 -0.0088534
-0.0088534 -0.0088534 -0.229166

-0.142854 3.50311e-05 0.0088534
3.50311e-05 -0.142854 -0.0088534
0.0088534 -0.0088534 -0.229166

-0.139041 8.2881e-05 0.0265727
8.2881e-05 -0.140667 -0.00862126
0.0265727 -0.00862126 -0.225683

-0.132805 5.18945e-05 0.0442955
5.18945e-05 -0.138423 -0.00824112
0.0442955 -0.00824112 -0.222409

-0.116372 -0.000159982 0.0645336
-0.000159982 -0.130993 -0.00794567
0.0645336 -0.00794567 -0.216688

-0.147093 -0.000761874 0.0778171
-0.000761874 -0.182702 -0.00772224
0.0778171 -0.00772224 -0.288105

-0.147093 -0.000761874 -0.0778171
-0.000761874 -0.182702 0.00772224
-0.0778171 0.00772224 -0.288105

-0.116372 -0.000159982 -0.0645336
-0.000159982 -0.130993 0.00794567
-0.0645336 0.00794567 -0.216688

-0.132805 5.18945e-05 -0.0442955
5.18945e-05 -0.138423 0.00824112
-0.0442955 0.00824112 -0.222409

-0.139041 8.2881e-05 -0.0265727
8.2881e-05 -0.140667 0.00862126
-0.0265727 0.00862126 -0.225683

-0.142854 3.50311e-05 -0.0088534
3.50311e-05 -0.142854 0.0088534
-0.0088534 0.0088534 -0.229166

-0.142854 -3.50311e-05 0.0088534
-3.50311e-05 -0.142854 0.0088534
0.0088534 0.0088534 -0.229166

-0.139041 -8.2881e-05 0.0265727
-8.2881e-05 -0.140667 0.00862126
0.0265727 0.00862126 -0.225683

-0.132805 -5.18945e-05 0.0442955
-5.18945e-05 -0.138423 0.00824112
0.0442955 0.00824112 -0.222409

-0.116372 0.000159982 0.0645336
0.000159982 -0.130993 0.00794567
0.0645336 0.00794567 -0.216688

-0.147093 0.000761874 0.0778171
0.000761874 -0.182702 0.00772224
0.0778171 0.00772224 -0.288105

-0.146184 -0.00223542 -0.0763716
-0.00223542 -0.180305 0.0230141
-0.0763716 0.0230141 -0.285481

-0.115615 -0.000523492 -0.0630534
-0.000523492 -0.128664 0.0238172
-0.0630534 0.0238172 -0.214706

-0.131358 7.66937e-05 -0.0431888
7.66937e-05 -0.13535 0.0247502
-0.0431888 0.0247502 -0.219773

-0.137098 0.000182779 -0.0258876
0.000182779 -0.137098 0.0258876
-0.0258876 0.0258876 -0.222501

-0.140667 8.2881e-05 -0.00862126
8.2881e-05 -0.139041 0.0265727
-0.00862126 0.0265727 -0.225683

-0.140667 -8.2881e-05 0.00862126
-8.2881e-05 -0.139041 0.0265727
0.00862126 0.0265727 -0.225683

-0.137098 -0.000182779 0.0258876
-0.000182779 -0.137098 0.0258876
0.0258876 0.0258876 -0.222501

-0.131358 -7.66937e-05 0.0431888
-7.66937e-05 -0.13535 0.0247502
0.0431888 0.0247502 -0.219773

-0.115615 0.000523492 0.0630534
0.000523492 -0.128664 0.0238172
0.0630534 0.0238172 -0.214706

-0.146184 0.00223542 0.0763716
0.00223542 -0.180305 0.0230141
0.0763716 0.0230141 -0.285481

-0.146997 -0.00361285 -0.0735453
-0.00361285 -0.177136 0.0378695
-0.0735453 0.0378695 -0.284063

-0.116325 -0.0010969 -0.0604255
-0.0010969 -0.125297 0.0396588
-0.0604255 0.0396588 -0.214165

-0.130347 -0.000199434 -0.0413333
-0.000199434 -0.130347 0.0413333
-0.0413333 0.0413333 -0.217801

-0.13535 7.66937e-05 -0.0247502
7.66937e-05 -0.131358 0.0431888
-0.0247502 0.0431888 -0.219773

-0.138423 5.18945e-05 -0.00824112
5.18945e-05 -0.132805 0.0442955
-0.00824112 0.0442955 -0.222409

-0.138423 -5.18945e-05 0.00824112
-5.18945e-05 -0.132805 0.0442955
0.00824112 0.0442955 -0.222409

-0.13535 -7.66937e-05 0.0247502
-7.66937e-05 -0.131358 0.0431888
0.0247502 0.0431888 -0.219773

-0.130347 0.000199434 0.0413333
0.000199434 -0.130347 0.0413333
0.0413333 0.0413333 -0.217801

-0.116325 0.0010969 0.0604255
0.0010969 -0.125297 0.0396588
0.0604255 0.0396588 -0.214165

-0.146997 0.00361285 0.0735453
0.00361285 -0.177136 0.0378695
0.0735453 0.0378695 -0.284063

-0.147212 -0.00553687 -0.0699273
-0.00553687 -0.166585 0.0548873
-0.0699273 0.0548873 -0.282447

-0.112271 -0.00253418 -0.0580183
-0.00253418 -0.112271 0.0580183
-0.0580183 0.0580183 -0.211001

-0.125297 -0.0010969 -0.0396588
-0.0010969 -0.116325 0.0604255
-0.0396588 0.0604255 -0.214165

-0.128664 -0.000523492 -0.0238172
-0.000523492 -0.115615 0.0630534
-0.0238172 0.0630534 -0.214706

-0.130993 -0.000159982 -0.00794567
-0.000159982 -0.116372 0.0645336
-0.00794567 0.0645336 -0.216688

-0.130993 0.000159982 0.00794567
0.000159982 -0.116372 0.0645336
0.00794567 0.0645336 -0.216688

-0.128664 0.000523492 0.0238172
0.000523492 -0.115615 0.0630534
0.0238172 0.0630534 -0.214706

-0.125297 0.0010969 0.0396588
0.0010969 -0.116325 0.0604255
0.0396588 0.0604255 -0.214165

-0.112271 0.00253418 0.0580183
0.00253418 -0.112271 0.0580183
0.0580183 0.0580183 -0.211001

-0.147212 0.00553687 0.0699273
0.00553687 -0.166585 0.0548873
0.0699273 0.0548873 -0.282447

-0.196618 -0.0131508 -0.0658839
-0.0131508 -0.196618 0.0658839
-0.0658839 0.0658839 -0.346216

-0.166585 -0.00553687 -0.0548873
-0.00553687 -0.147212 0.0699273
-0.0548873 0.0699273 -0.282447

-0.177136 -0.00361285 -0.0378695
-0.00361285 -0.146997 0.0735453
-0.0378695 0.0735453 -0.284063

-0.180305 -0.00223542 -0.0230141
-0.00223542 -0.146184 0.0763716
-0.0230141 0.0763716 -0.285481

-0.182702 -0.000761874 -0.00772224
-0.000761874 -0.147093 0.0778171
-0.00772224 0.0778171 -0.288105

-0.182702 0.000761874 0.00772224
0.000761874 -0.147093 0.0778171
0.00772224 0.0778171 -0.288105

-0.180305 0.00223542 0.0230141
0.00223542 -0.146184 0.0763716
0.0230141 0.0763716 -0.285481

-0.177136 0.00361285 0.0378695
0.00361285 -0.146997 0.0735453
0.0378695 0.0735453 -0.284063

-0.166585 0.00553687 0.0548873
0.00553687 -0.147212 0.0699273
0.0548873 0.0699273 -0.282447

-0.196618 0.0131508 0.0658839
0.0131508 -0.196618 0.0658839
0.0658839 0.0658839 -0.346216

0.00245496 0.00292211 -0.0168276
0.00292211 0.00245496 -0.0168276
-0.0168276 -0.0168276 -0.209395

-0.0394753 -0.00127429 -0.0350729
-0.00127429 -0.0233113 -0.0187018
-0.0350729 -0.0187018 -0.23002

-0.039961 -0.00237126 -0.03044
-0.00237126 -0.0137261 -0.0189523
-0.03044 -0.0189523 -0.221036

-0.0403534 -0.00159359 -0.0201857
-0.00159359 -0.0114185 -0.0199564
-0.0201857 -0.0199564 -0.222625

-0.0391059 -0.000565012 -0.00702621
-0.000565012 -0.00994874 -0.0205843
-0.00702621 -0.0205843 -0.223813

-0.0391059 0.000565012 0.00702621
0.000565012 -0.00994874 -0.0205843
0.00702621 -0.0205843 -0.223813

-0.0403534 0.00159359 0.0201857
0.00159359 -0.0114185 -0.0199564
0.0201857 -0.0199564 -0.222625

-0.039961 0.00237126 0.03044
0.00237126 -0.0137261 -0.0189523
0.03044 -0.0189523 -0.221036

-0.0394753 0.00127429 0.0350729
0.00127429 -0.0233113 -0.0187018
0.0350729 -0.0187018 -0.23002

0.00245496 -0.00292211 0.0168276
-0.00292211 0.00245496 -0.0168276
0.0168276 -0.0168276 -0.209395

-0.0233113 -0.00127429 -0.0187018
-0.00127429 -0.0394753 -0.0350729
-0.0187018 -0.0350729 -0.23002

-0.065489 -0.00392446 -0.0350691
-0.00392446 -0.065489 -0.0350691
-0.0350691 -0.0350691 -0.250186

-0.0713766 -0.00476313 -0.0297493
-0.00476313 -0.0610761 -0.0362435
-0.0297493 -0.0362435 -0.244884

-0.0761564 -0.0034931 -0.0194561
-0.0034931 -0.0616081 -0.037874
-0.0194561 -0.037874 -0.24893

-0.0771374 -0.00126166 -0.00673129
-0.00126166 -0.0612182 -0.0389483
-0.00673129 -0.0389483 -0.251154

-0.0771374 0.00126166 0.00673129
0.00126166 -0.0612182 -0.0389483
0.00673129 -0.0389483 -0.251154

-0.0761564 0.0034931 0.0194561
0.0034931 -0.0616081 -0.037874
0.0194561 -0.037874 -0.24893

-0.0713766 0.00476313 0.0297493
0.00476313 -0.0610761 -0.0362435
0.0297493 -0.0362435 -0.244884

-0.065489 0.00392446 0.0350691
0.00392446 -0.065489 -0.0350691
0.0350691 -0.0350691 -0.250186

-0.0233113 0.00127429 0.0187018
0.00127429 -0.0394753 -0.0350729
0.0187018 -0.0350729 -0.23002

-0.0137261 -0.00237126 -0.0189523
-0.00237126 -0.039961 -0.03044
-0.0189523 -0.03044 -0.221036

-0.0610761 -0.00476313 -0.0362435
-0.00476313 -0.0713766 -0.0297493
-0.0362435 -0.0297493 -0.244884

-0.0679518 -0.00509538 -0.0309966
-0.00509538 -0.0679518 -0.0309966
-0.0309966 -0.0309966 -0.239922

-0.0742694 -0.00372946 -0.0202833
-0.00372946 -0.0698364 -0.0324495
-0.0202833 -0.0324495 -0.245292

-0.0760781 -0.00135633 -0.0070149
-0.00135633 -0.0699451 -0.0334262
-0.0070149 -0.0334262 -0.248213

-0.0760781 0.00135633 0.0070149
0.00135633 -0.0699451 -0.0334262
0.0070149 -0.0334262 -0.248213

-0.0742694 0.00372946 0.0202833
0.00372946 -0.0698364 -0.0324495
0.0202833 -0.0324495 -0.245292

-0.0679518 0.00509538 0.0309966
0.00509538 -0.0679518 -0.0309966
0.0309966 -0.0309966 -0.239922

-0.0610761 0.00476313 0.0362435
0.00476313 -0.0713766 -0.0297493
0.0362435 -0.0297493 -0.244884

-0.0137261 0.00237126 0.0189523
0.00237126 -0.039961 -0.03044
0.0189523 -0.03044 -0.221036

-0.0114185 -0.00159359 -0.0199564
-0.00159359 -0.0403534 -0.0201857
-0.0199564 -0.0201857 -0.222625

-0.0616081 -0.0034931 -0.037874
-0.0034931 -0.0761564 -0.0194561
-0.037874 -0.0194561 -0.24893

-0.0698364 -0.00372946 -0.0324495
-0.00372946 -0.0742694 -0.0202833
-0.0324495 -0.0202833 -0.245292

-0.0769083 -0.0027127 -0.021274
-0.0027127 -0.0769083 -0.021274
-0.021274 -0.021274 -0.251785

-0.0791492 -0.000986873 -0.00736293
-0.000986873 -0.0773943 -0.0219343
-0.00736293 -0.0219343 -0.255407

-0.0791492 0.000986873 0.00736293
0.000986873 -0.0773943 -0.0219343
0.00736293 -0.0219343 -0.255407

-0.0769083 0.0027127 0.021274
0.0027127 -0.0769083 -0.021274
0.021274 -0.021274 -0.251785

-0.0698364 0.00372946 0.0324495
0.00372946 -0.0742694 -0.0202833
0.0324495 -0.0202833 -0.245292

-0.0616081 0.0034931 0.037874
0.0034931 -0.0761564 -0.0194561
0.037874 -0.0194561 -0.24893

-0.0114185 0.00159359 0.0199564
0.00159359 -0.0403534 -0.0201857
0.0199564 -0.0201857 -0.222625

-0.00994874 -0.000565012 -0.0205843
-0.000565012 -0.0391059 -0.00702621
-0.0205843 -0.00702621 -0.223813

-0.0612182 -0.00126166 -0.0389483
-0.00126166 -0.0771374 -0.00673129
-0.0389483 -0.00673129 -0.251154

-0.0699451 -0.00135633 -0.0334262
-0.00135633 -0.0760781 -0.0070149
-0.0334262 -0.0070149 -0.248213

-0.0773943 -0.000986873 -0.0219343
-0.000986873 -0.0791492 -0.00736293
-0.0219343 -0.00736293 -0.255407

-0.0797745 -0.000358423 -0.00759662
-0.000358423 -0.0797745 -0.00759662
-0.00759662 -0.00759662 -0.259397

-0.0797745 0.000358423 0.00759662
0.000358423 -0.0797745 -0.00759662
0.00759662 -0.00759662 -0.259397

-0.0773943 0.000986873 0.0219343
0.000986873 -0.0791492 -0.00736293
0.0219343 -0.00736293 -0.255407

-0.0699451 0.00135633 0.0334262
0.00135633 -0.0760781 -0.0070149
0.0334262 -0.0070149 -0.248213

-0.0612182 0.00126166 0.0389483
0.00126166 -0.0771374 -0.00673129
0.0389483 -0.00673129 -0.251154

-0.00994874 0.000565012 0.0205843
0.000565012 -0.0391059 -0.00702621
0.0205843 -0.00702621 -0.223813

-0.00994874 0.000565012 -0.0205843
0.000565012 -0.0391059 0.00702621
-0.0205843 0.00702621 -0.223813

-0.0612182 0.00126166 -0.0389483
0.00126166 -0.0771374 0.00673129
-0.0389483 0.00673129 -0.251154

-0.0699451 0.00135633 -0.0334262
0.00135633 -0.0760781 0.0070149
-0.0334262 0.0070149 -0.248213

-0.0773943 0.000986873 -0.0219343
0.000986873 -0.0791492 0.00736293
-0.0219343 0.00736293 -0.255407

-0.0797745 0.000358423 -0.00759662
0.000358423 -0.0797745 0.00759662
-0.00759662 0.00759662 -0.259397

-0.0797745 -0.000358423 0.00759662
-0.000358423 -0.0797745 0.00759662
0.00759662 0.00759662 -0.259397

-0.0773943 -0.000986873 0.0219343
-0.000986873 -0.0791492 0.00736293
0.0219343 0.00736293 -0.255407

-0.0699451 -0.00135633 0.0334262
-0.00135633 -0.0760781 0.0070149
0.0334262 0.0070149 -0.248213

-0.0612182 -0.00126166 0.0389483
-0.00126166 -0.0771374 0.00673129
0.0389483 0.00673129 -0.251154

-0.00994874 -0.000565012 0.0205843
-0.000565012 -0.0391059 0.00702621
0.0205843 0.00702621 -0.223813

-0.0114185 0.00159359 -0.0199564
0.00159359 -0.0403534 0.0201857
-0.0199564 0.0201857 -0.222625

-0.0616081 0.0034931 -0.037874
0.0034931 -0.0761564 0.0194561
-0.037874 0.0194561 -0.24893

-0.0698364 0.00372946 -0.0324495
0.00372946 -0.0742694 0.0202833
-0.0324495 0.0202833 -0.245292

-0.0769083 0.0027127 -0.021274
0.0027127 -0.0769083 0.021274
-0.021274 0.021274 -0.251785

-0.0791492 0.000986873 -0.00736293
0.000986873 -0.0773943 0.0219343
-0.00736293 0.0219343 -0.255407

-0.0791492 -0.000986873 0.00736293
-0.000986873 -0.0773943 0.0219343
0.00736293 0.0219343 -0.255407

-0.0769083 -0.0027127 0.021274
-0.0027127 -0.0769083 0.021274
0.021274 0.021274 -0.251785

-0.0698364 -0.00372946 0.0324495
-0.00372946 -0.0742694 0.0202833
0.0324495 0.0202833 -0.245292

-0.0616081 -0.0034931 0.037874
-0.0034931 -0.0761564 0.0194561
0.037874 0.0194561 -0.24893

-0.0114185 -0.00159359 0.0199564
-0.00159359 -0.0403534 0.0201857
0.0199564 0.0201857 -0.222625

-0.0137261 0.00237126 -0.0189523
0.00237126 -0.039961 0.03044
-0.0189523 0.03044 -0.221036

-0.0610761 0.00476313 -0.0362435
0.00476313 -0.0713766 0.0297493
-0.0362435 0.0297493 -0.244884

-0.0679518 0.00509538 -0.0309966
0.00509538 -0.0679518 0.0309966
-0.0309966 0.0309966 -0.239922

-0.0742694 0.00372946 -0.0202833
0.00372946 -0.0698364 0.0324495
-0.0202833 0.0324495 -0.245292

-0.0760781 0.00135633 -0.0070149
0.00135633 -0.0699451 0.0334262
-0.0070149 0.0334262 -0.248213

-0.0760781 -0.00135633 0.0070149
-0.00135633 -0.0699451 0.0334262
0.0070149 0.0334262 -0.248213

-0.0742694 -0.00372946 0.0202833
-0.00372946 -0.0698364 0.0324495
0.0202833 0.0324495 -0.245292

-0.0679518 -0.00509538 0.0309966
-0.00509538 -0.0679518 0.0309966
0.0309966 0.0309966 -0.239922

-0.0610761 -0.00476313 0.0362435
-0.00476313 -0.0713766 0.0297493
0.0362435 0.0297493 -0.244884

-0.0137261 -0.00237126 0.0189523
-0.00237126 -0.039961 0.03044
0.0189523 0.03044 -0.221036

-0.0233113 0.00127429 -0.0187018
0.00127429 -0.0394753 0.0350729
-0.0187018 0.0350729 -0.23002

-0.065489 0.00392446 -0.0350691
0.00392446 -0.065489 0.0350691
-0.0350691 0.0350691 -0.250186

-0.0713766 0.00476313 -0.0297493
0.00476313 -0.0610761 0.0362435
-0.0297493 0.0362435 -0.244884

-0.0761564 0.0034931 -0.0194561
0.0034931 -0.0616081 0.037874
-0.0194561 0.037874 -0.24893

-0.0771374 0.00126166 -0.00673129
0.00126166 -0.0612182 0.0389483
-0.00673129 0.0389483 -0.251154

-0.0771374 -0.00126166 0.00673129
-0.00126166 -0.0612182 0.0389483
0.00673129 0.0389483 -0.251154

-0.0761564 -0.0034931 0.0194561
-0.0034931 -0.0616081 0.037874
0.0194561 0.037874 -0.24893

-0.0713766 -0.00476313 0.0297493
-0.00476313 -0.0610761 0.0362435
0.0297493 0.0362435 -0.244884

-0.065489 -0.00392446 0.0350691
-0.00392446 -0.065489 0.0350691
0.0350691 0.0350691 -0.250186

-0.0233113 -0.00127429 0.0187018
-0.00127429 -0.0394753 0.0350729
0.0187018 0.0350729 -0.23002

0.00245496 -0.00292211 -0.0168276
-0.00292211 0.00245496 0.0168276
-0.0168276 0.0168276 -0.209395

-0.0394753 0.00127429 -0.0350729
0.00127429 -0.0233113 0.0187018
-0.0350729 0.0187018 -0.23002

-0.039961 0.00237126 -0.03044
0.00237126 -0.0137261 0.0189523
-0.03044 0.0189523 -0.221036

-0.0403534 0.00159359 -0.0201857
0.00159359 -0.0114185 0.0199564
-0.0201857 0.0199564 -0.222625

-0.0391059 0.000565012 -0.00702621
0.000565012 -0.00994874 0.0205843
-0.00702621 0.0205843 -0.223813

-0.0391059 -0.000565012 0.00702621
-0.000565012 -0.00994874 0.0205843
0.00702621 0.0205843 -0.223813

-0.0403534 -0.00159359 0.0201857
-0.00159359 -0.0114185 0.0199564
0.0201857 0.0199564 -0.222625

-0.039961 -0.00237126 0.03044
-0.00237126 -0.0137261 0.0189523
0.03044 0.0189523 -0.221036

-0.0394753 -0.00127429 0.0350729
-0.00127429 -0.0233113 0.0187018
0.0350729 0.0187018 -0.23002

0.00245496 0.00292211 0.0168276
0.00292211 0.00245496 0.0168276
0.0168276 0.0168276 -0.209395

-3.41345e-05 -0.00525083 -0.00436921
-0.00525083 -3.41345e-05 -0.00436921
-0.00436921 -0.00436921 -0.180636

-0.000751988 -0.0046674 -0.0202514
-0.0046674 -0.00266879 -0.00435944
-0.0202514 -0.00435944 -0.198667

-0.00219568 -0.00545279 -0.0240793
-0.00545279 -0.00700548 -0.00534734
-0.0240793 -0.00534734 -0.209501

0.00369558 -0.00397358 -0.0179808
-0.00397358 -0.00485486 -0.00599787
-0.0179808 -0.00599787 -0.214055

0.00745356 -0.00142915 -0.00657967
-0.00142915 -0.00400094 -0.0065472
-0.00657967 -0.0065472 -0.217234

0.00745356 0.00142915 0.00657967
0.00142915 -0.00400094 -0.0065472
0.00657967 -0.0065472 -0.217234

0.00369558 0.00397358 0.0179808
0.00397358 -0.00485486 -0.00599787
0.0179808 -0.00599787 -0.214055

-0.00219568 0.00545279 0.0240793
0.00545279 -0.00700548 -0.00534734
0.0240793 -0.00534734 -0.209501

-0.000751988 0.0046674 0.0202514
0.0046674 -0.00266879 -0.00435944
0.0202514 -0.00435944 -0.198667

-3.41345e-05 0.00525083 0.00436921
0.00525083 -3.41345e-05 -0.00436921
0.00436921 -0.00436921 -0.180636

-0.00266879 -0.0046674 -0.00435944
-0.0046674 -0.000751988 -0.0202514
-0.00435944 -0.0202514 -0.198667

-0.0100835 -0.00911568 -0.0198315
-0.00911568 -0.0100835 -0.0198315
-0.0198315 -0.0198315 -0.221157

-0.0158827 -0.00980681 -0.0233201
-0.00980681 -0.0147922 -0.0212683
-0.0233201 -0.0212683 -0.233665

-0.0148485 -0.00723522 -0.0172155
-0.00723522 -0.0141376 -0.0231996
-0.0172155 -0.0231996 -0.24069

-0.0138139 -0.00263201 -0.00626576
-0.00263201 -0.0137885 -0.0245031
-0.00626576 -0.0245031 -0.245168

-0.0138139 0.00263201 0.00626576
0.00263201 -0.0137885 -0.0245031
0.00626576 -0.0245031 -0.245168

-0.0148485 0.00723522 0.0172155
0.00723522 -0.0141376 -0.0231996
0.0172155 -0.0231996 -0.24069

-0.0158827 0.00980681 0.0233201
0.00980681 -0.0147922 -0.0212683
0.0233201 -0.0212683 -0.233665

-0.0100835 0.00911568 0.0198315
0.00911568 -0.0100835 -0.0198315
0.0198315 -0.0198315 -0.221157

-0.00266879 0.0046674 0.00435944
0.0046674 -0.000751988 -0.0202514
0.00435944 -0.0202514 -0.198667

-0.00700548 -0.00545279 -0.00534734
-0.00545279 -0.00219568 -0.0240793
-0.00534734 -0.0240793 -0.209501

-0.0147922 -0.00980681 -0.0212683
-0.00980681 -0.0158827 -0.0233201
-0.0212683 -0.0233201 -0.233665

-0.0240971 -0.0101767 -0.024844
-0.0101767 -0.0240971 -0.024844
-0.024844 -0.024844 -0.250247

-0.0248105 -0.0074283 -0.0182787
-0.0074283 -0.0244217 -0.026972
-0.0182787 -0.026972 -0.259462

-0.0249733 -0.00270387 -0.00663842
-0.00270387 -0.0246123 -0.0283874
-0.00663842 -0.0283874 -0.265324

-0.0249733 0.00270387 0.00663842
0.00270387 -0.0246123 -0.0283874
0.00663842 -0.0283874 -0.265324

-0.0248105 0.0074283 0.0182787
0.0074283 -0.0244217 -0.026972
0.0182787 -0.026972 -0.259462

-0.0240971 0.0101767 0.024844
0.0101767 -0.0240971 -0.024844
0.024844 -0.024844 -0.250247

-0.0147922 0.00980681 0.0212683
0.00980681 -0.0158827 -0.0233201
0.0212683 -0.0233201 -0.233665

-0.00700548 0.00545279 0.00534734
0.00545279 -0.00219568 -0.0240793
0.00534734 -0.0240793 -0.209501

-0.00485486 -0.00397358 -0.00599787
-0.00397358 0.00369558 -0.0179808
-0.00599787 -0.0179808 -0.214055

-0.0141376 -0.00723522 -0.0231996
-0.00723522 -0.0148485 -0.0172155
-0.0231996 -0.0172155 -0.24069

-0.0244217 -0.0074283 -0.026972
-0.0074283 -0.0248105 -0.0182787
-0.026972 -0.0182787 -0.259462

-0.0257795 -0.00539944 -0.0198425
-0.00539944 -0.0257795 -0.0198425
-0.0198425 -0.0198425 -0.270576

-0.0262332 -0.00196247 -0.00720661
-0.00196247 -0.0261221 -0.020879
-0.00720661 -0.020879 -0.277484

-0.0262332 0.00196247 0.00720661
0.00196247 -0.0261221 -0.020879
0.00720661 -0.020879 -0.277484

-0.0257795 0.00539944 0.0198425
0.00539944 -0.0257795 -0.0198425
0.0198425 -0.0198425 -0.270576

-0.0244217 0.0074283 0.026972
0.0074283 -0.0248105 -0.0182787
0.026972 -0.0182787 -0.259462

-0.0141376 0.00723522 0.0231996
0.00723522 -0.0148485 -0.0172155
0.0231996 -0.0172155 -0.24069

-0.00485486 0.00397358 0.00599787
0.00397358 0.00369558 -0.0179808
0.00599787 -0.0179808 -0.214055

-0.00400094 -0.00142915 -0.0065472
-0.00142915 0.00745356 -0.00657967
-0.0065472 -0.00657967 -0.217234

-0.0137885 -0.00263201 -0.0245031
-0.00263201 -0.0138139 -0.00626576
-0.0245031 -0.00626576 -0.245168

-0.0246123 -0.00270387 -0.0283874
-0.00270387 -0.0249733 -0.00663842
-0.0283874 -0.00663842 -0.265324

-0.0261221 -0.00196247 -0.020879
-0.00196247 -0.0262332 -0.00720661
-0.020879 -0.00720661 -0.277484

-0.0266397 -0.000712997 -0.0075855
-0.000712997 -0.0266397 -0.0075855
-0.0075855 -0.0075855 -0.285009

-0.0266397 0.000712997 0.0075855
0.000712997 -0.0266397 -0.0075855
0.0075855 -0.0075855 -0.285009

-0.0261221 0.00196247 0.020879
0.00196247 -0.0262332 -0.00720661
0.020879 -0.00720661 -0.277484

-0.0246123 0.00270387 0.0283874
0.00270387 -0.0249733 -0.00663842
0.0283874 -0.00663842 -0.265324

-0.0137885 0.00263201 0.0245031
0.00263201 -0.0138139 -0.00626576
0.0245031 -0.00626576 -0.245168

-0.00400094 0.00142915 0.0065472
0.00142915 0.00745356 -0.00657967
0.0065472 -0.00657967 -0.217234

-0.00400094 0.00142915 -0.0065472
0.00142915 0.00745356 0.00657967
-0.0065472 0.00657967 -0.217234

-0.0137885 0.00263201 -0.0245031
0.00263201 -0.0138139 0.00626576
-0.0245031 0.00626576 -0.245168

-0.0246123 0.00270387 -0.0283874
0.00270387 -0.0249733 0.00663842
-0.0283874 0.00663842 -0.265324

-0.0261221 0.00196247 -0.020879
0.00196247 -0.0262332 0.00720661
-0.020879 0.00720661 -0.277484

-0.0266397 0.000712997 -0.0075855
0.000712997 -0.0266397 0.0075855
-0.0075855 0.0075855 -0.285009

-0.0266397 -0.000712997 0.0075855
-0.000712997 -0.0266397 0.0075855
0.0075855 0.0075855 -0.285009

-0.0261221 -0.00196247 0.020879
-0.00196247 -0.0262332 0.00720661
0.020879 0.00720661 -0.277484

-0.0246123 -0.00270387 0.0283874
-0.00270387 -0.0249733 0.00663842
0.0283874 0.00663842 -0.265324

-0.0137885 -0.00263201 0.0245031
-0.00263201 -0.0138139 0.00626576
0.0245031 0.00626576 -0.245168

-0.00400094 -0.00142915 0.0065472
-0.00142915 0.00745356 0.00657967
0.0065472 0.00657967 -0.217234

-0.00485486 0.00397358 -0.00599787
0.00397358 0.00369558 0.0179808
-0.00599787 0.0179808 -0.214055

-0.0141376 0.00723522 -0.0231996
0.00723522 -0.0148485 0.0172155
-0.0231996 0.0172155 -0.24069

-0.0244217 0.0074283 -0.026972
0.0074283 -0.0248105 0.0182787
-0.026972 0.0182787 -0.259462

-0.0257795 0.00539944 -0.0198425
0.00539944 -0.0257795 0.0198425
-0.0198425 0.0198425 -0.270576

-0.0262332 0.00196247 -0.00720661
0.00196247 -0.0261221 0.020879
-0.00720661 0.020879 -0.277484

-0.0262332 -0.00196247 0.00720661
-0.00196247 -0.0261221 0.020879
0.00720661 0.020879 -0.277484

-0.0257795 -0.00539944 0.0198425
-0.00539944 -0.0257795 0.0198425
0.0198425 0.0198425 -0.270576

-0.0244217 -0.0074283 0.026972
-0.0074283 -0.0248105 0.0182787
0.026972 0.0182787 -0.259462

-0.0141376 -0.00723522 0.0231996
-0.00723522 -0.0148485 0.0172155
0.0231996 0.0172155 -0.24069

-0.00485486 -0.00397358 0.00599787
-0.00397358 0.00369558 0.0179808
0.00599787 0.0179808 -0.214055

-0.00700548 0.00545279 -0.00534734
0.00545279 -0.00219568 0.0240793
-0.00534734 0.0240793 -0.209501

-0.0147922 0.00980681 -0.0212683
0.00980681 -0.0158827 0.0233201
-0.0212683 0.0233201 -0.233665

-0.0240971 0.0101767 -0.024844
0.0101767 -0.0240971 0.024844
-0.024844 0.024844 -0.250247

-0.0248105 0.0074283 -0.0182787
0.0074283 -0.0244217 0.026972
-0.0182787 0.026972 -0.259462

-0.0249733 0.00270387 -0.00663842
0.00270387 -0.0246123 0.0283874
-0.00663842 0.0283874 -0.265324

-0.0249733 -0.00270387 0.00663842
-0.00270387 -0.0246123 0.0283874
0.00663842 0.0283874 -0.265324

-0.0248105 -0.0074283 0.0182787
-0.0074283 -0.0244217 0.026972
0.0182787 0.026972 -0.259462

-0.0240971 -0.0101767 0.024844
-0.0101767 -0.0240971 0.024844
0.024844 0.024844 -0.250247

-0.0147922 -0.00980681 0.0212683
-0.00980681 -0.0158827 0.0233201
0.0212683 0.0233201 -0.233665

-0.00700548 -0.00545279 0.00534734
-0.00545279 -0.00219568 0.0240793
0.00534734 0.0240793 -0.209501

-0.00266879 0.0046674 -0.00435944
0.0046674 -0.000751988 0.0202514
-0.00435944 0.0202514 -0.198667

-0.0100835 0.00911568 -0.0198315
0.00911568 -0.0100835 0.0198315
-0.0198315 0.0198315 -0.221157

-0.0158827 0.00980681 -0.0233201
0.00980681 -0.0147922 0.0212683
-0.0233201 0.0212683 -0.233665

-0.0148485 0.00723522 -0.0172155
0.00723522 -0.0141376 0.0231996
-0.0172155 0.0231996 -0.24069

-0.0138139 0.00263201 -0.00626576
0.00263201 -0.0137885 0.0245031
-0.00626576 0.0245031 -0.245168

-0.0138139 -0.00263201 0.00626576
-0.00263201 -0.0137885 0.0245031
0.00626576 0.0245031 -0.245168

-0.0148485 -0.00723522 0.0172155
-0.00723522 -0.0141376 0.0231996
0.0172155 0.0231996 -0.24069

-0.0158827 -0.00980681 0.0233201
-0.00980681 -0.0147922 0.0212683
0.0233201 0.0212683 -0.233665

-0.0100835 -0.00911568 0.0198315
-0.00911568 -0.0100835 0.0198315
0.0198315 0.0198315 -0.221157

-0.00266879 -0.0046674 0.00435944
-0.0046674 -0.000751988 0.0202514
0.00435944 0.0202514 -0.198667

-3.41345e-05 0.00525083 -0.00436921
0.00525083 -3.41345e-05 0.00436921
-0.00436921 0.00436921 -0.180636

-0.000751988 0.0046674 -0.0202514
0.0046674 -0.00266879 0.00435944
-0.0202514 0.00435944 -0.198667

-0.00219568 0.00545279 -0.0240793
0.00545279 -0.00700548 0.00534734
-0.0240793 0.00534734 -0.209501

0.00369558 0.00397358 -0.0179808
0.00397358 -0.00485486 0.00599787
-0.0179808 0.00599787 -0.214055

0.00745356 0.00142915 -0.00657967
0.00142915 -0.00400094 0.0065472
-0.00657967 0.0065472 -0.217234

0.00745356 -0.00142915 0.00657967
-0.00142915 -0.00400094 0.0065472
0.00657967 0.0065472 -0.217234

0.00369558 -0.00397358 0.0179808
-0.00397358 -0.00485486 0.00599787
0.0179808 0.00599787 -0.214055

-0.00219568 -0.00545279 0.0240793
-0.00545279 -0.00700548 0.00534734
0.0240793 0.00534734 -0.209501

-0.000751988 -0.0046674 0.0202514
-0.0046674 -0.00266879 0.00435944
0.0202514 0.00435944 -0.198667

-3.41345e-05 -0.00525083 0.00436921
-0.00525083 -3.41345e-05 0.00436921
0.00436921 0.00436921 -0.180636

-0.00212136 -0.00527126 -0.00459883
-0.00527126 -0.00212136 -0.00459883
-0.00459883 -0.00459883 -0.159674

0.0102967 -0.00799089 -0.0178514
-0.00799089 0.00110438 -0.00424885
-0.0178514 -0.00424885 -0.178989

0.0242011 -0.00860593 -0.0232713
-0.00860593 0.000434721 -0.00574444
-0.0232713 -0.00574444 -0.19507

0.0371093 -0.00644814 -0.0185954
-0.00644814 0.000606009 -0.00759901
-0.0185954 -0.00759901 -0.206028

0.0450854 -0.00235121 -0.00698266
-0.00235121 0.00114756 -0.00873546
-0.00698266 -0.00873546 -0.211555

0.0450854 0.00235121 0.00698266
0.00235121 0.00114756 -0.00873546
0.00698266 -0.00873546 -0.211555

0.0371093 0.00644814 0.0185954
0.00644814 0.000606009 -0.00759901
0.0185954 -0.00759901 -0.206028

0.0242011 0.00860593 0.0232713
0.00860593 0.000434721 -0.00574444
0.0232713 -0.00574444 -0.19507

0.0102967 0.00799089 0.0178514
0.00799089 0.00110438 -0.00424885
0.0178514 -0.00424885 -0.178989

-0.00212136 0.00527126 0.00459883
0.00527126 -0.00212136 -0.00459883
0.00459883 -0.00459883 -0.159674

0.00110438 -0.00799089 -0.00424885
-0.00799089 0.0102967 -0.0178514
-0.00424885 -0.0178514 -0.178989

0.00721056 -0.0151908 -0.0178228
-0.0151908 0.00721056 -0.0178228
-0.0178228 -0.0178228 -0.203279

0.0148078 -0.016211 -0.0230515
-0.016211 0.00490184 -0.0211368
-0.0230515 -0.0211368 -0.22316

0.0217156 -0.0120024 -0.0182257
-0.0120024 0.00412667 -0.0250692
-0.0182257 -0.0250692 -0.23761

0.026243 -0.00439098 -0.0068035
-0.00439098 0.00445025 -0.0275509
-0.0068035 -0.0275509 -0.244987

0.026243 0.00439098 0.0068035
0.00439098 0.00445025 -0.0275509
0.0068035 -0.0275509 -0.244987

0.0217156 0.0120024 0.0182257
0.0120024 0.00412667 -0.0250692
0.0182257 -0.0250692 -0.23761

0.0148078 0.016211 0.0230515
0.016211 0.00490184 -0.0211368
0.0230515 -0.0211368 -0.22316

0.00721056 0.0151908 0.0178228
0.0151908 0.00721056 -0.0178228
0.0178228 -0.0178228 -0.203279

0.00110438 0.00799089 0.00424885
0.00799089 0.0102967 -0.0178514
0.00424885 -0.0178514 -0.178989

0.000434721 -0.00860593 -0.00574444
-0.00860593 0.0242011 -0.0232713
-0.00574444 -0.0232713 -0.19507

0.00490184 -0.016211 -0.0211368
-0.016211 0.0148078 -0.0230515
-0.0211368 -0.0230515 -0.22316

0.0103545 -0.0170987 -0.026543
-0.0170987 0.0103545 -0.026543
-0.026543 -0.026543 -0.247544

0.0152537 -0.0125634 -0.0207124
-0.0125634 0.00895233 -0.0308182
-0.0207124 -0.0308182 -0.265945

0.0186153 -0.00459038 -0.00769349
-0.00459038 0.00922951 -0.0335476
-0.00769349 -0.0335476 -0.275478

0.0186153 0.00459038 0.00769349
0.00459038 0.00922951 -0.0335476
0.00769349 -0.0335476 -0.275478

0.0152537 0.0125634 0.0207124
0.0125634 0.00895233 -0.0308182
0.0207124 -0.0308182 -0.265945

0.0103545 0.0170987 0.026543
0.0170987 0.0103545 -0.026543
0.026543 -0.026543 -0.247544

0.00490184 0.016211 0.0211368
0.016211 0.0148078 -0.0230515
0.0211368 -0.0230515 -0.22316

0.000434721 0.00860593 0.00574444
0.00860593 0.0242011 -0.0232713
0.00574444 -0.0232713 -0.19507

0.000606009 -0.00644814 -0.00759901
-0.00644814 0.0371093 -0.0185954
-0.00759901 -0.0185954 -0.206028

0.00412667 -0.0120024 -0.0250692
-0.0120024 0.0217156 -0.0182257
-0.0250692 -0.0182257 -0.23761

0.00895233 -0.0125634 -0.0308182
-0.0125634 0.0152537 -0.0207124
-0.0308182 -0.0207124 -0.265945

0.0134975 -0.00920141 -0.0238426
-0.00920141 0.0134975 -0.0238426
-0.0238426 -0.0238426 -0.287716

0.0167242 -0.00335848 -0.00883778
-0.00335848 0.0139037 -0.0258697
-0.00883778 -0.0258697 -0.29912

0.0167242 0.00335848 0.00883778
0.00335848 0.0139037 -0.0258697
0.00883778 -0.0258697 -0.29912

0.0134975 0.00920141 0.0238426
0.00920141 0.0134975 -0.0238426
0.0238426 -0.0238426 -0.287716

0.00895233 0.0125634 0.0308182
0.0125634 0.0152537 -0.0207124
0.0308182 -0.0207124 -0.265945

0.00412667 0.0120024 0.0250692
0.0120024 0.0217156 -0.0182257
0.0250692 -0.0182257 -0.23761

0.000606009 0.00644814 0.00759901
0.00644814 0.0371093 -0.0185954
0.00759901 -0.0185954 -0.206028

0.00114756 -0.00235121 -0.00873546
-0.00235121 0.0450854 -0.00698266
-0.00873546 -0.00698266 -0.211555

0.00445025 -0.00439098 -0.0275509
-0.00439098 0.026243 -0.0068035
-0.0275509 -0.0068035 -0.244987

0.00922951 -0.00459038 -0.0335476
-0.00459038 0.0186153 -0.00769349
-0.0335476 -0.00769349 -0.275478

0.0139037 -0.00335848 -0.0258697
-0.00335848 0.0167242 -0.00883778
-0.0258697 -0.00883778 -0.29912

0.0172411 -0.00122565 -0.00958432
-0.00122565 0.0172411 -0.00958432
-0.00958432 -0.00958432 -0.311603

0.0172411 0.00122565 0.00958432
0.00122565 0.0172411 -0.00958432
0.00958432 -0.00958432 -0.311603

0.0139037 0.00335848 0.0258697
0.00335848 0.0167242 -0.00883778
0.0258697 -0.00883778 -0.29912

0.00922951 0.00459038 0.0335476
0.00459038 0.0186153 -0.00769349
0.0335476 -0.00769349 -0.275478

0.00445025 0.00439098 0.0275509
0.00439098 0.026243 -0.0068035
0.0275509 -0.0068035 -0.244987

0.00114756 0.00235121 0.00873546
0.00235121 0.0450854 -0.00698266
0.00873546 -0.00698266 -0.211555

0.00114756 0.00235121 -0.00873546
0.00235121 0.0450854 0.00698266
-0.00873546 0.00698266 -0.211555

0.00445025 0.00439098 -0.0275509
0.00439098 0.026243 0.0068035
-0.0275509 0.0068035 -0.244987

0.00922951 0.00459038 -0.0335476
0.00459038 0.0186153 0.00769349
-0.0335476 0.00769349 -0.275478

0.0139037 0.00335848 -0.0258697
0.00335848 0.0167242 0.00883778
-0.0258697 0.00883778 -0.29912

0.0172411 0.00122565 -0.00958432
0.00122565 0.0172411 0.00958432
-0.00958432 0.00958432 -0.311603

0.0172411 -0.00122565 0.00958432
-0.00122565 0.0172411 0.00958432
0.00958432 0.00958432 -0.311603

0.0139037 -0.00335848 0.0258697
-0.00335848 0.0167242 0.00883778
0.0258697 0.00883778 -0.29912

0.00922951 -0.00459038 0.0335476
-0.00459038 0.0186153 0.00769349
0.0335476 0.00769349 -0.275478

0.00445025 -0.00439098 0.0275509
-0.00439098 0.026243 0.0068035
0.0275509 0.0068035 -0.244987

0.00114756 -0.00235121 0.00873546
-0.00235121 0.0450854 0.00698266
0.00873546 0.00698266 -0.211555

0.000606009 0.00644814 -0.00759901
0.00644814 0.0371093 0.0185954
-0.00759901 0.0185954 -0.206028

0.00412667 0.0120024 -0.0250692
0.0120024 0.0217156 0.0182257
-0.0250692 0.0182257 -0.23761

0.00895233 0.0125634 -0.0308182
0.0125634 0.0152537 0.0207124
-0.0308182 0.0207124 -0.265945

0.0134975 0.00920141 -0.0238426
0.00920141 0.0134975 0.0238426
-0.0238426 0.0238426 -0.287716

0.0167242 0.00335848 -0.00883778
0.00335848 0.0139037 0.0258697
-0.00883778 0.0258697 -0.29912

0.0167242 -0.00335848 0.00883778
-0.00335848 0.0139037 0.0258697
0.00883778 0.0258697 -0.29912

0.0134975 -0.00920141 0.0238426
-0.00920141 0.0134975 0.0238426
0.0238426 0.0238426 -0.287716

0.00895233 -0.0125634 0.0308182
-0.0125634 0.0152537 0.0207124
0.0308182 0.0207124 -0.265945

0.00412667 -0.0120024 0.0250692
-0.0120024 0.0217156 0.0182257
0.0250692 0.0182257 -0.23761

0.000606009 -0.00644814 0.00759901
-0.00644814 0.0371093 0.0185954
0.00759901 0.0185954 -0.206028

0.000434721 0.00860593 -0.00574444
0.00860593 0.0242011 0.0232713
-0.00574444 0.0232713 -0.19507

0.00490184 0.016211 -0.0211368
0.016211 0.0148078 0.0230515
-0.0211368 0.0230515 -0.22316

0.0103545 0.0170987 -0.026543
0.0170987 0.0103545 0.026543
-0.026543 0.026543 -0.247544

0.0152537 0.0125634 -0.0207124
0.0125634 0.00895233 0.0308182
-0.0207124 0.0308182 -0.265945

0.0186153 0.00459038 -0.00769349
0.00459038 0.00922951 0.0335476
-0.00769349 0.0335476 -0.275478

0.0186153 -0.00459038 0.00769349
-0.00459038 0.00922951 0.0335476
0.00769349 0.0335476 -0.275478

0.0152537 -0.0125634 0.0207124
-0.0125634 0.00895233 0.0308182
0.0207124 0.0308182 -0.265945

0.0103545 -0.0170987 0.026543
-0.0170987 0.0103545 0.026543
0.026543 0.026543 -0.247544

0.00490184 -0.016211 0.0211368
-0.016211 0.0148078 0.0230515
0.0211368 0.0230515 -0.22316

0.000434721 -0.00860593 0.00574444
-0.00860593 0.0242011 0.0232713
0.00574444 0.0232713 -0.19507

0.00110438 0.00799089 -0.00424885
0.00799089 0.0102967 0.0178514
-0.00424885 0.0178514 -0.178989

0.00721056 0.0151908 -0.0178228
0.0151908 0.00721056 0.0178228
-0.0178228 0.0178228 -0.203279

0.0148078 0.016211 -0.0230515
0.016211 0.00490184 0.0211368
-0.0230515 0.0211368 -0.22316

0.0217156 0.0120024 -0.0182257
0.0120024 0.00412667 0.0250692
-0.0182257 0.0250692 -0.23761

0.026243 0.00439098 -0.0068035
0.00439098 0.00445025 0.0275509
-0.0068035 0.0275509 -0.244987

0.026243 -0.00439098 0.0068035
-0.00439098 0.00445025 0.0275509
0.0068035 0.0275509 -0.244987

0.0217156 -0.0120024 0.0182257
-0.0120024 0.00412667 0.0250692
0.0182257 0.0250692 -0.23761

0.0148078 -0.016211 0.0230515
-0.016211 0.00490184 0.0211368
0.0230515 0.0211368 -0.22316

0.00721056 -0.0151908 0.0178228
-0.0151908 0.00721056 0.0178228
0.0178228 0.0178228 -0.203279

0.00110438 -0.00799089 0.00424885
-0.00799089 0.0102967 0.0178514
0.00424885 0.0178514 -0.178989

-0.00212136 0.00527126 -0.00459883
0.00527126 -0.00212136 0.00459883
-0.00459883 0.00459883 -0.159674

0.0102967 0.00799089 -0.0178514
0.00799089 0.00110438 0.00424885
-0.0178514 0.00424885 -0.178989

0.0242011 0.00860593 -0.0232713
0.00860593 0.000434721 0.00574444
-0.0232713 0.00574444 -0.19507

0.0371093 0.00644814 -0.0185954
0.00644814 0.000606009 0.00759901
-0.0185954 0.00759901 -0.206028

0.0450854 0.00235121 -0.00698266
0.00235121 0.00114756 0.00873546
-0.00698266 0.00873546 -0.211555

0.0450854 -0.00235121 0.00698266
-0.00235121 0.00114756 0.00873546
0.00698266 0.00873546 -0.211555

0.0371093 -0.00644814 0.0185954
-0.00644814 0.000606009 0.00759901
0.0185954 0.00759901 -0.206028

0.0242011 -0.00860593 0.0232713
-0.00860593 0.000434721 0.00574444
0.0232713 0.00574444 -0.19507

0.0102967 -0.00799089 0.0178514
-0.00799089 0.00110438 0.00424885
0.0178514 0.00424885 -0.178989

-0.00212136 -0.00527126 0.00459883
-0.00527126 -0.00212136 0.00459883
0.00459883 0.00459883 -0.159674

-0.0038413 -0.00576446 -0.00809422
-0.00576446 -0.0038413 -0.00809422
-0.00809422 -0.00809422 -0.135694

0.0162651 -0.0120817 -0.0224492
-0.0120817 0.00165903 -0.00892099
-0.0224492 -0.00892099 -0.157297

0.0416662 -0.0140365 -0.028107
-0.0140365 0.00247215 -0.0124085
-0.028107 -0.0124085 -0.177422

0.0644098 -0.0104117 -0.0222041
-0.0104117 0.00287483 -0.0164634
-0.0222041 -0.0164634 -0.192081

0.0772149 -0.00378756 -0.00830906
-0.00378756 0.00285812 -0.0189072
-0.00830906 -0.0189072 -0.199779

0.0772149 0.00378756 0.00830906
0.00378756 0.00285812 -0.0189072
0.00830906 -0.0189072 -0.199779

0.0644098 0.0104117 0.0222041
0.0104117 0.00287483 -0.0164634
0.0222041 -0.0164634 -0.192081

0.0416662 0.0140365 0.028107
0.0140365 0.00247215 -0.0124085
0.028107 -0.0124085 -0.177422

0.0162651 0.0120817 0.0224492
0.0120817 0.00165903 -0.00892099
0.0224492 -0.00892099 -0.157297

-0.0038413 0.00576446 0.00809422
0.00576446 -0.0038413 -0.00809422
0.00809422 -0.00809422 -0.135694

0.00165903 -0.0120817 -0.00892099
-0.0120817 0.0162651 -0.0224492
-0.00892099 -0.0224492 -0.157297

0.0168216 -0.0239055 -0.0242257
-0.0239055 0.0168216 -0.0242257
-0.0242257 -0.0242257 -0.184449

0.033929 -0.026287 -0.0297386
-0.026287 0.0151917 -0.0314365
-0.0297386 -0.0314365 -0.211885

0.0485587 -0.0194961 -0.0230141
-0.0194961 0.0145208 -0.0394337
-0.0230141 -0.0394337 -0.232937

0.0566954 -0.00712686 -0.00854419
-0.00712686 0.0145184 -0.0442813
-0.00854419 -0.0442813 -0.243906

0.0566954 0.00712686 0.00854419
0.00712686 0.0145184 -0.0442813
0.00854419 -0.0442813 -0.243906

0.0485587 0.0194961 0.0230141
0.0194961 0.0145208 -0.0394337
0.0230141 -0.0394337 -0.232937

0.033929 0.026287 0.0297386
0.026287 0.0151917 -0.0314365
0.0297386 -0.0314365 -0.211885

0.0168216 0.0239055 0.0242257
0.0239055 0.0168216 -0.0242257
0.0242257 -0.0242257 -0.184449

0.00165903 0.0120817 0.00892099
0.0120817 0.0162651 -0.0224492
0.00892099 -0.0224492 -0.157297

0.00247215 -0.0140365 -0.0124085
-0.0140365 0.0416662 -0.028107
-0.0124085 -0.028107 -0.177422

0.0151917 -0.026287 -0.0314365
-0.026287 0.033929 -0.0297386
-0.0314365 -0.0297386 -0.211885

0.0300161 -0.0281674 -0.037558
-0.0281674 0.0300161 -0.037558
-0.037558 -0.037558 -0.247366

0.0429229 -0.0207468 -0.0285363
-0.0207468 0.0293912 -0.0462923
-0.0285363 -0.0462923 -0.27529

0.0497466 -0.0075845 -0.0105294
-0.0075845 0.0297414 -0.0516386
-0.0105294 -0.0516386 -0.290158

0.0497466 0.0075845 0.0105294
0.0075845 0.0297414 -0.0516386
0.0105294 -0.0516386 -0.290158

0.0429229 0.0207468 0.0285363
0.0207468 0.0293912 -0.0462923
0.0285363 -0.0462923 -0.27529

0.0300161 0.0281674 0.037558
0.0281674 0.0300161 -0.037558
0.037558 -0.037558 -0.247366

0.0151917 0.026287 0.0314365
0.026287 0.033929 -0.0297386
0.0314365 -0.0297386 -0.211885

0.00247215 0.0140365 0.0124085
0.0140365 0.0416662 -0.028107
0.0124085 -0.028107 -0.177422

0.00287483 -0.0104117 -0.0164634
-0.0104117 0.0644098 -0.0222041
-0.0164634 -0.0222041 -0.192081

0.0145208 -0.0194961 -0.0394337
-0.0194961 0.0485587 -0.0230141
-0.0394337 -0.0230141 -0.232937

0.0293912 -0.0207468 -0.0462923
-0.0207468 0.0429229 -0.0285363
-0.0462923 -0.0285363 -0.27529

0.042819 -0.0152239 -0.0348981
-0.0152239 0.042819 -0.0348981
-0.0348981 -0.0348981 -0.309181

0.0498175 -0.00555425 -0.0128533
-0.00555425 0.0437533 -0.0388302
-0.0128533 -0.0388302 -0.327484

0.0498175 0.00555425 0.0128533
0.00555425 0.0437533 -0.0388302
0.0128533 -0.0388302 -0.327484

0.042819 0.0152239 0.0348981
0.0152239 0.042819 -0.0348981
0.0348981 -0.0348981 -0.309181

0.0293912 0.0207468 0.0462923
0.0207468 0.0429229 -0.0285363
0.0462923 -0.0285363 -0.27529

0.0145208 0.0194961 0.0394337
0.0194961 0.0485587 -0.0230141
0.0394337 -0.0230141 -0.232937

0.00287483 0.0104117 0.0164634
0.0104117 0.0644098 -0.0222041
0.0164634 -0.0222041 -0.192081

0.00285812 -0.00378756 -0.0189072
-0.00378756 0.0772149 -0.00830906
-0.0189072 -0.00830906 -0.199779

0.0145184 -0.00712686 -0.0442813
-0.00712686 0.0566954 -0.00854419
-0.0442813 -0.00854419 -0.243906

0.0297414 -0.0075845 -0.0516386
-0.0075845 0.0497466 -0.0105294
-0.0516386 -0.0105294 -0.290158

0.0437533 -0.00555425 -0.0388302
-0.00555425 0.0498175 -0.0128533
-0.0388302 -0.0128533 -0.327484

0.050987 -0.00202121 -0.014292
-0.00202121 0.050987 -0.014292
-0.014292 -0.014292 -0.3478

0.050987 0.00202121 0.014292
0.00202121 0.050987 -0.014292
0.014292 -0.014292 -0.3478

0.0437533 0.00555425 0.0388302
0.00555425 0.0498175 -0.0128533
0.0388302 -0.0128533 -0.327484

0.0297414 0.0075845 0.0516386
0.0075845 0.0497466 -0.0105294
0.0516386 -0.0105294 -0.290158

0.0145184 0.00712686 0.0442813
0.00712686 0.0566954 -0.00854419
0.0442813 -0.00854419 -0.243906

0.00285812 0.00378756 0.0189072
0.00378756 0.0772149 -0.00830906
0.0189072 -0.00830906 -0.199779

0.00285812 0.00378756 -0.0189072
0.00378756 0.0772149 0.00830906
-0.0189072 0.00830906 -0.199779

0.0145184 0.00712686 -0.0442813
0.00712686 0.0566954 0.00854419
-0.0442813 0.00854419 -0.243906

0.0297414 0.0075845 -0.0516386
0.0075845 0.0497466 0.0105294
-0.0516386 0.0105294 -0.290158

0.0437533 0.00555425 -0.0388302
0.00555425 0.0498175 0.0128533
-0.0388302 0.0128533 -0.327484

0.050987 0.00202121 -0.014292
0.00202121 0.050987 0.014292
-0.014292 0.014292 -0.3478

0.050987 -0.00202121 0.014292
-0.00202121 0.050987 0.014292
0.014292 0.014292 -0.3478

0.0437533 -0.00555425 0.0388302
-0.00555425 0.0498175 0.0128533
0.0388302 0.0128533 -0.327484

0.0297414 -0.0075845 0.0516386
-0.0075845 0.0497466 0.0105294
0.0516386 0.0105294 -0.290158

0.0145184 -0.00712686 0.0442813
-0.00712686 0.0566954 0.00854419
0.0442813 0.00854419 -0.243906

0.00285812 -0.00378756 0.0189072
-0.00378756 0.0772149 0.00830906
0.0189072 0.00830906 -0.199779

0.00287483 0.0104117 -0.0164634
0.0104117 0.0644098 0.0222041
-0.0164634 0.0222041 -0.192081

0.0145208 0.0194961 -0.0394337
0.0194961 0.0485587 0.0230141
-0.0394337 0.0230141 -0.232937

0.0293912 0.0207468 -0.0462923
0.0207468 0.0429229 0.0285363
-0.0462923 0.0285363 -0.27529

0.042819 0.0152239 -0.0348981
0.0152239 0.042819 0.0348981
-0.0348981 0.0348981 -0.309181

0.0498175 0.00555425 -0.0128533
0.00555425 0.0437533 0.0388302
-0.0128533 0.0388302 -0.327484

0.0498175 -0.00555425 0.0128533
-0.00555425 0.0437533 0.0388302
0.0128533 0.0388302 -0.327484

0.042819 -0.0152239 0.0348981
-0.0152239 0.042819 0.0348981
0.0348981 0.0348981 -0.309181

0.0293912 -0.0207468 0.0462923
-0.0207468 0.0429229 0.0285363
0.0462923 0.0285363 -0.27529

0.0145208 -0.0194961 0.0394337
-0.0194961 0.0485587 0.0230141
0.0394337 0.0230141 -0.232937

0.00287483 -0.0104117 0.0164634
-0.0104117 0.0644098 0.0222041
0.0164634 0.0222041 -0.192081

0.00247215 0.0140365 -0.0124085
0.0140365 0.0416662 0.028107
-0.0124085 0.028107 -0.177422

0.0151917 0.026287 -0.0314365
0.026287 0.033929 0.0297386
-0.0314365 0.0297386 -0.211885

0.0300161 0.0281674 -0.037558
0.0281674 0.0300161 0.037558
-0.037558 0.037558 -0.247366

0.0429229 0.0207468 -0.0285363
0.0207468 0.0293912 0.0462923
-0.0285363 0.0462923 -0.27529

0.0497466 0.0075845 -0.0105294
0.0075845 0.0297414 0.0516386
-0.0105294 0.0516386 -0.290158

0.0497466 -0.0075845 0.0105294
-0.0075845 0.0297414 0.0516386
0.0105294 0.0516386 -0.290158

0.0429229 -0.0207468 0.0285363
-0.0207468 0.0293912 0.0462923
0.0285363 0.0462923 -0.27529

0.0300161 -0.0281674 0.037558
-0.0281674 0.0300161 0.037558
0.037558 0.037558 -0.247366

0.0151917 -0.026287 0.0314365
-0.026287 0.033929 0.0297386
0.0314365 0.0297386 -0.211885

0.00247215 -0.0140365 0.0124085
-0.0140365 0.0416662 0.028107
0.0124085 0.028107 -0.177422

0.00165903 0.0120817 -0.00892099
0.0120817 0.0162651 0.0224492
-0.00892099 0.0224492 -0.157297

0.0168216 0.0239055 -0.0242257
0.0239055 0.0168216 0.0242257
-0.0242257 0.0242257 -0.184449

0.033929 0.026287 -0.0297386
0.026287 0.0151917 0.0314365
-0.0297386 0.0314365 -0.211885

0.0485587 0.0194961 -0.0230141
0.0194961 0.0145208 0.0394337
-0.0230141 0.0394337 -0.232937

0.0566954 0.00712686 -0.00854419
0.00712686 0.0145184 0.0442813
-0.00854419 0.0442813 -0.243906

0.0566954 -0.00712686 0.00854419
-0.00712686 0.0145184 0.0442813
0.00854419 0.0442813 -0.243906

0.0485587 -0.0194961 0.0230141
-0.0194961 0.0145208 0.0394337
0.0230141 0.0394337 -0.232937

0.033929 -0.026287 0.0297386
-0.026287 0.0151917 0.0314365
0.0297386 0.0314365 -0.211885

0.0168216 -0.0239055 0.0242257
-0.0239055 0.0168216 0.0242257
0.0242257 0.0242257 -0.184449

0.00165903 -0.0120817 0.00892099
-0.0120817 0.0162651 0.0224492
0.00892099 0.0224492 -0.157297

-0.0038413 0.00576446 -0.00809422
0.00576446 -0.0038413 0.00809422
-0.00809422 0.00809422 -0.135694

0.0162651 0.0120817 -0.0224492
0.0120817 0.00165903 0.00892099
-0.0224492 0.00892099 -0.157297

0.0416662 0.0140365 -0.028107
0.0140365 0.00247215 0.0124085
-0.028107 0.0124085 -0.177422

0.0644098 0.0104117 -0.0222041
0.0104117 0.00287483 0.0164634
-0.0222041 0.0164634 -0.192081

0.0772149 0.00378756 -0.00830906
0.00378756 0.00285812 0.0189072
-0.00830906 0.0189072 -0.199779

0.0772149 -0.00378756 0.00830906
-0.00378756 0.00285812 0.0189072
0.00830906 0.0189072 -0.199779

0.0644098 -0.0104117 0.0222041
-0.0104117 0.00287483 0.0164634
0.0222041 0.0164634 -0.192081

0.0416662 -0.0140365 0.028107
-0.0140365 0.00247215 0.0124085
0.028107 0.0124085 -0.177422

0.0162651 -0.0120817 0.0224492
-0.0120817 0.00165903 0.00892099
0.0224492 0.00892099 -0.157297

-0.0038413 -0.00576446 0.00809422
-0.00576446 -0.0038413 0.00809422
0.00809422 0.00809422 -0.135694

-0.00357106 -0.00812673 -0.0118881
-0.00812673 -0.00357106 -0.0118881
-0.0118881 -0.0118881 -0.102599

0.0216846 -0.0188245 -0.0286906
-0.0188245 0.00207372 -0.0148938
-0.0286906 -0.0148938 -0.127619

0.0569609 -0.0228942 -0.0351225
-0.0228942 0.00261706 -0.0221431
-0.0351225 -0.0221431 -0.149711

0.0892542 -0.0166985 -0.0269577
-0.0166985 0.002429 -0.0299489
-0.0269577 -0.0299489 -0.165776

0.107085 -0.00597028 -0.00991159
-0.00597028 0.00177262 -0.0343438
-0.00991159 -0.0343438 -0.174023

0.107085 0.00597028 0.00991159
0.00597028 0.00177262 -0.0343438
0.00991159 -0.0343438 -0.174023

0.0892542 0.0166985 0.0269577
0.0166985 0.002429 -0.0299489
0.0269577 -0.0299489 -0.165776

0.0569609 0.0228942 0.0351225
0.0228942 0.00261706 -0.0221431
0.0351225 -0.0221431 -0.149711

0.0216846 0.0188245 0.0286906
0.0188245 0.00207372 -0.0148938
0.0286906 -0.0148938 -0.127619

-0.00357106 0.00812673 0.0118881
0.00812673 -0.00357106 -0.0118881
0.0118881 -0.0118881 -0.102599

0.00207372 -0.0188245 -0.0148938
-0.0188245 0.0216846 -0.0286906
-0.0148938 -0.0286906 -0.127619

0.0217784 -0.037647 -0.0341349
-0.037647 0.0217784 -0.0341349
-0.0341349 -0.0341349 -0.162181

0.0450892 -0.0422936 -0.0407527
-0.0422936 0.0180732 -0.0482009
-0.0407527 -0.0482009 -0.198581

0.0655387 -0.0310157 -0.0303227
-0.0310157 0.0156505 -0.0631386
-0.0303227 -0.0631386 -0.227112

0.0766752 -0.0111998 -0.0110257
-0.0111998 0.0149818 -0.071704
-0.0110257 -0.071704 -0.241447

0.0766752 0.0111998 0.0110257
0.0111998 0.0149818 -0.071704
0.0110257 -0.071704 -0.241447

0.0655387 0.0310157 0.0303227
0.0310157 0.0156505 -0.0631386
0.0303227 -0.0631386 -0.227112

0.0450892 0.0422936 0.0407527
0.0422936 0.0180732 -0.0482009
0.0407527 -0.0482009 -0.198581

0.0217784 0.037647 0.0341349
0.037647 0.0217784 -0.0341349
0.0341349 -0.0341349 -0.162181

0.00207372 0.0188245 0.0148938
0.0188245 0.0216846 -0.0286906
0.0148938 -0.0286906 -0.127619

0.00261706 -0.0228942 -0.0221431
-0.0228942 0.0569609 -0.0351225
-0.0221431 -0.0351225 -0.149711

0.0180732 -0.0422936 -0.0482009
-0.0422936 0.0450892 -0.0407527
-0.0482009 -0.0407527 -0.198581

0.0394095 -0.0460559 -0.0565285
-0.0460559 0.0394095 -0.0565285
-0.0565285 -0.0565285 -0.249479

0.0586339 -0.0335467 -0.0413347
-0.0335467 0.038151 -0.0734692
-0.0413347 -0.0734692 -0.290601

0.0682881 -0.0121178 -0.0149808
-0.0121178 0.038484 -0.0832588
-0.0149808 -0.0832588 -0.311873

0.0682881 0.0121178 0.0149808
0.0121178 0.038484 -0.0832588
0.0149808 -0.0832588 -0.311873

0.0586339 0.0335467 0.0413347
0.0335467 0.038151 -0.0734692
0.0413347 -0.0734692 -0.290601

0.0394095 0.0460559 0.0565285
0.0460559 0.0394095 -0.0565285
0.0565285 -0.0565285 -0.249479

0.0180732 0.0422936 0.0482009
0.0422936 0.0450892 -0.0407527
0.0482009 -0.0407527 -0.198581

0.00261706 0.0228942 0.0221431
0.0228942 0.0569609 -0.0351225
0.0221431 -0.0351225 -0.149711

0.002429 -0.0166985 -0.0299489
-0.0166985 0.0892542 -0.0269577
-0.0299489 -0.0269577 -0.165776

0.0156505 -0.0310157 -0.0631386
-0.0310157 0.0655387 -0.0303227
-0.0631386 -0.0303227 -0.227112

0.038151 -0.0335467 -0.0734692
-0.0335467 0.0586339 -0.0413347
-0.0734692 -0.0413347 -0.290601

0.059094 -0.0241779 -0.0534468
-0.0241779 0.059094 -0.0534468
-0.0534468 -0.0534468 -0.343186

0.0690769 -0.00866199 -0.0193606
-0.00866199 0.0604707 -0.0603553
-0.0193606 -0.0603553 -0.370858

0.0690769 0.00866199 0.0193606
0.00866199 0.0604707 -0.0603553
0.0193606 -0.0603553 -0.370858

0.059094 0.0241779 0.0534468
0.0241779 0.059094 -0.0534468
0.0534468 -0.0534468 -0.343186

0.038151 0.0335467 0.0734692
0.0335467 0.0586339 -0.0413347
0.0734692 -0.0413347 -0.290601

0.0156505 0.0310157 0.0631386
0.0310157 0.0655387 -0.0303227
0.0631386 -0.0303227 -0.227112

0.002429 0.0166985 0.0299489
0.0166985 0.0892542 -0.0269577
0.0299489 -0.0269577 -0.165776

0.00177262 -0.00597028 -0.0343438
-0.00597028 0.107085 -0.00991159
-0.0343438 -0.00991159 -0.174023

0.0149818 -0.0111998 -0.071704
-0.0111998 0.0766752 -0.0110257
-0.071704 -0.0110257 -0.241447

0.038484 -0.0121178 -0.0832588
-0.0121178 0.0682881 -0.0149808
-0.0832588 -0.0149808 -0.311873

0.0604707 -0.00866199 -0.0603553
-0.00866199 0.0690769 -0.0193606
-0.0603553 -0.0193606 -0.370858

0.0699693 -0.00307862 -0.0217795
-0.00307862 0.0699693 -0.0217795
-0.0217795 -0.0217795 -0.402318

0.0699693 0.00307862 0.0217795
0.00307862 0.0699693 -0.0217795
0.0217795 -0.0217795 -0.402318

0.0604707 0.00866199 0.0603553
0.00866199 0.0690769 -0.0193606
0.0603553 -0.0193606 -0.370858

0.038484 0.0121178 0.0832588
0.0121178 0.0682881 -0.0149808
0.0832588 -0.0149808 -0.311873

0.0149818 0.0111998 0.071704
0.0111998 0.0766752 -0.0110257
0.071704 -0.0110257 -0.241447

0.00177262 0.00597028 0.0343438
0.00597028 0.107085 -0.00991159
0.0343438 -0.00991159 -0.174023

0.00177262 0.00597028 -0.0343438
0.00597028 0.107085 0.00991159
-0.0343438 0.00991159 -0.174023

0.0149818 0.0111998 -0.071704
0.0111998 0.0766752 0.0110257
-0.071704 0.0110257 -0.241447

0.038484 0.0121178 -0.0832588
0.0121178 0.0682881 0.0149808
-0.0832588 0.0149808 -0.311873

0.0604707 0.00866199 -0.0603553
0.00866199 0.0690769 0.0193606
-0.0603553 0.0193606 -0.370858

0.0699693 0.00307862 -0.0217795
0.00307862 0.0699693 0.0217795
-0.0217795 0.0217795 -0.402318

0.0699693 -0.00307862 0.0217795
-0.00307862 0.0699693 0.0217795
0.0217795 0.0217795 -0.402318

0.0604707 -0.00866199 0.0603553
-0.00866199 0.0690769 0.0193606
0.0603553 0.0193606 -0.370858

0.038484 -0.0121178 0.0832588
-0.0121178 0.0682881 0.0149808
0.0832588 0.0149808 -0.311873

0.0149818 -0.0111998 0.071704
-0.0111998 0.0766752 0.0110257
0.071704 0.0110257 -0.241447

0.00177262 -0.00597028 0.0343438
-0.00597028 0.107085 0.00991159
0.0343438 0.00991159 -0.174023

0.002429 0.0166985 -0.0299489
0.0166985 0.0892542 0.0269577
-0.0299489 0.0269577 -0.165776

0.0156505 0.0310157 -0.0631386
0.0310157 0.0655387 0.0303227
-0.0631386 0.0303227 -0.227112

0.038151 0.0335467 -0.0734692
0.0335467 0.0586339 0.0413347
-0.0734692 0.0413347 -0.290601

0.059094 0.0241779 -0.0534468
0.0241779 0.059094 0.0534468
-0.0534468 0.0534468 -0.343186

0.0690769 0.00866199 -0.0193606
0.00866199 0.0604707 0.0603553
-0.0193606 0.0603553 -0.370858

0.0690769 -0.00866199 0.0193606
-0.00866199 0.0604707 0.0603553
0.0193606 0.0603553 -0.370858

0.059094 -0.0241779 0.0534468
-0.0241779 0.059094 0.0534468
0.0534468 0.0534468 -0.343186

0.038151 -0.0335467 0.0734692
-0.0335467 0.0586339 0.0413347
0.0734692 0.0413347 -0.290601

0.0156505 -0.0310157 0.0631386
-0.0310157 0.0655387 0.0303227
0.0631386 0.0303227 -0.227112

0.002429 -0.0166985 0.0299489
-0.0166985 0.0892542 0.0269577
0.0299489 0.0269577 -0.165776

0.00261706 0.0228942 -0.0221431
0.0228942 0.0569609 0.0351225
-0.0221431 0.0351225 -0.149711

0.0180732 0.0422936 -0.0482009
0.0422936 0.0450892 0.0407527
-0.0482009 0.0407527 -0.198581

0.0394095 0.0460559 -0.0565285
0.0460559 0.0394095 0.0565285
-0.0565285 0.0565285 -0.249479

0.0586339 0.0335467 -0.0413347
0.0335467 0.038151 0.0734692
-0.0413347 0.0734692 -0.290601

0.0682881 0.0121178 -0.0149808
0.0121178 0.038484 0.0832588
-0.0149808 0.0832588 -0.311873

0.0682881 -0.0121178 0.0149808
-0.0121178 0.038484 0.0832588
0.0149808 0.0832588 -0.311873

0.0586339 -0.0335467 0.0413347
-0.0335467 0.038151 0.0734692
0.0413347 0.0734692 -0.290601

0.0394095 -0.0460559 0.0565285
-0.0460559 0.0394095 0.0565285
0.0565285 0.0565285 -0.249479

0.0180732 -0.0422936 0.0482009
-0.0422936 0.0450892 0.0407527
0.0482009 0.0407527 -0.198581

0.00261706 -0.0228942 0.0221431
-0.0228942 0.0569609 0.0351225
0.0221431 0.0351225 -0.149711

0.00207372 0.0188245 -0.0148938
0.0188245 0.0216846 0.0286906
-0.0148938 0.0286906 -0.127619

0.0217784 0.037647 -0.0341349
0.037647 0.0217784 0.0341349
-0.0341349 0.0341349 -0.162181

0.0450892 0.0422936 -0.0407527
0.0422936 0.0180732 0.0482009
-0.0407527 0.0482009 -0.198581

0.0655387 0.0310157 -0.0303227
0.0310157 0.0156505 0.0631386
-0.0303227 0.0631386 -0.227112

0.0766752 0.0111998 -0.0110257
0.0111998 0.0149818 0.071704
-0.0110257 0.071704 -0.241447

0.0766752 -0.0111998 0.0110257
-0.0111998 0.0149818 0.071704
0.0110257 0.071704 -0.241447

0.0655387 -0.0310157 0.0303227
-0.0310157 0.0156505 0.0631386
0.0303227 0.0631386 -0.227112

0.0450892 -0.0422936 0.0407527
-0.0422936 0.0180732 0.0482009
0.0407527 0.0482009 -0.198581

0.0217784 -0.037647 0.0341349
-0.037647 0.0217784 0.0341349
0.0341349 0.0341349 -0.162181

0.00207372 -0.0188245 0.0148938
-0.0188245 0.0216846 0.0286906
0.0148938 0.0286906 -0.127619

-0.00357106 0.00812673 -0.0118881
0.00812673 -0.00357106 0.0118881
-0.0118881 0.0118881 -0.102599

0.0216846 0.0188245 -0.0286906
0.0188245 0.00207372 0.0148938
-0.0286906 0.0148938 -0.127619

0.0569609 0.0228942 -0.0351225
0.0228942 0.00261706 0.0221431
-0.0351225 0.0221431 -0.149711

0.0892542 0.0166985 -0.0269577
0.0166985 0.002429 0.0299489
-0.0269577 0.0299489 -0.165776

0.107085 0.00597028 -0.00991159
0.00597028 0.00177262 0.0343438
-0.00991159 0.0343438 -0.174023

0.107085 -0.00597028 0.00991159
-0.00597028 0.00177262 0.0343438
0.00991159 0.0343438 -0.174023

0.0892542 -0.0166985 0.0269577
-0.0166985 0.002429 0.0299489
0.0269577 0.0299489 -0.165776

0.0569609 -0.0228942 0.0351225
-0.0228942 0.00261706 0.0221431
0.0351225 0.0221431 -0.149711

0.0216846 -0.0188245 0.0286906
-0.0188245 0.00207372 0.0148938
0.0286906 0.0148938 -0.127619

-0.00357106 -0.00812673 0.0118881
-0.00812673 -0.00357106 0.0118881
0.0118881 0.0118881 -0.102599

-0.00147836 -0.0122205 -0.0131882
-0.0122205 -0.00147836 -0.0131882
-0.0131882 -0.0131882 -0.0616183

0.0269659 -0.0282139 -0.031046
-0.0282139 0.00270508 -0.0190757
-0.031046 -0.0190757 -0.0884275

0.0694871 -0.0355048 -0.0390789
-0.0355048 5.60117e-05 -0.0313774
-0.0390789 -0.0313774 -0.108168

0.109261 -0.0245714 -0.0292163
-0.0245714 -0.00346076 -0.0440887
-0.0292163 -0.0440887 -0.121714

0.131392 -0.00853902 -0.0106658
-0.00853902 -0.00498476 -0.0504069
-0.0106658 -0.0504069 -0.127847

0.131392 0.00853902 0.0106658
0.00853902 -0.00498476 -0.0504069
0.0106658 -0.0504069 -0.127847

0.109261 0.0245714 0.0292163
0.0245714 -0.00346076 -0.0440887
0.0292163 -0.0440887 -0.121714

0.0694871 0.0355048 0.0390789
0.0355048 5.60117e-05 -0.0313774
0.0390789 -0.0313774 -0.108168

0.0269659 0.0282139 0.031046
0.0282139 0.00270508 -0.0190757
0.031046 -0.0190757 -0.0884275

-0.00147836 0.0122205 0.0131882
0.0122205 -0.00147836 -0.0131882
0.0131882 -0.0131882 -0.0616183

0.00270508 -0.0282139 -0.0190757
-0.0282139 0.0269659 -0.031046
-0.0190757 -0.031046 -0.0884275

0.0216345 -0.0565401 -0.0423336
-0.0565401 0.0216345 -0.0423336
-0.0423336 -0.0423336 -0.133989

0.0461188 -0.0652766 -0.051976
-0.0652766 0.00998158 -0.066631
-0.051976 -0.066631 -0.18065

0.067893 -0.0457557 -0.0370389
-0.0457557 0.00028347 -0.0918763
-0.0370389 -0.0918763 -0.217798

0.0805227 -0.0159937 -0.0132325
-0.0159937 -0.00183246 -0.104998
-0.0132325 -0.104998 -0.234322

0.0805227 0.0159937 0.0132325
0.0159937 -0.00183246 -0.104998
0.0132325 -0.104998 -0.234322

0.067893 0.0457557 0.0370389
0.0457557 0.00028347 -0.0918763
0.0370389 -0.0918763 -0.217798

0.0461188 0.0652766 0.051976
0.0652766 0.00998158 -0.066631
0.051976 -0.066631 -0.18065

0.0216345 0.0565401 0.0423336
0.0565401 0.0216345 -0.0423336
0.0423336 -0.0423336 -0.133989

0.00270508 0.0282139 0.0190757
0.0282139 0.0269659 -0.031046
0.0190757 -0.031046 -0.0884275

5.60117e-05 -0.0355048 -0.0313774
-0.0355048 0.0694871 -0.0390789
-0.0313774 -0.0390789 -0.108168

0.00998158 -0.0652766 -0.066631
-0.0652766 0.0461188 -0.051976
-0.066631 -0.051976 -0.18065

0.0329838 -0.0736876 -0.0816593
-0.0736876 0.0329838 -0.0816593
-0.0816593 -0.0816593 -0.253332

0.0563368 -0.0511045 -0.0566877
-0.0511045 0.0276031 -0.113518
-0.0566877 -0.113518 -0.312687

0.0643447 -0.0177588 -0.0199041
-0.0177588 0.0257009 -0.129454
-0.0199041 -0.129454 -0.341792

0.0643447 0.0177588 0.0199041
0.0177588 0.0257009 -0.129454
0.0199041 -0.129454 -0.341792

0.0563368 0.0511045 0.0566877
0.0511045 0.0276031 -0.113518
0.0566877 -0.113518 -0.312687

0.0329838 0.0736876 0.0816593
0.0736876 0.0329838 -0.0816593
0.0816593 -0.0816593 -0.253332

0.00998158 0.0652766 0.066631
0.0652766 0.0461188 -0.051976
0.066631 -0.051976 -0.18065

5.60117e-05 0.0355048 0.0313774
0.0355048 0.0694871 -0.0390789
0.0313774 -0.0390789 -0.108168

-0.00346076 -0.0245714 -0.0440887
-0.0245714 0.109261 -0.0292163
-0.0440887 -0.0292163 -0.121714

0.00028347 -0.0457557 -0.0918763
-0.0457557 0.067893 -0.0370389
-0.0918763 -0.0370389 -0.217798

0.0276031 -0.0511045 -0.113518
-0.0511045 0.0563368 -0.0566877
-0.113518 -0.0566877 -0.312687

0.0573758 -0.0343025 -0.0780609
-0.0343025 0.0573758 -0.0780609
-0.0780609 -0.0780609 -0.393831

0.0619736 -0.0116504 -0.0271272
-0.0116504 0.0538184 -0.0877015
-0.0271272 -0.0877015 -0.435793

0.0619736 0.0116504 0.0271272
0.0116504 0.0538184 -0.0877015
0.0271272 -0.0877015 -0.435793

0.0573758 0.0343025 0.0780609
0.0343025 0.0573758 -0.0780609
0.0780609 -0.0780609 -0.393831

0.0276031 0.0511045 0.113518
0.0511045 0.0563368 -0.0566877
0.113518 -0.0566877 -0.312687

0.00028347 0.0457557 0.0918763
0.0457557 0.067893 -0.0370389
0.0918763 -0.0370389 -0.217798

-0.00346076 0.0245714 0.0440887
0.0245714 0.109261 -0.0292163
0.0440887 -0.0292163 -0.121714

-0.00498476 -0.00853902 -0.0504069
-0.00853902 0.131392 -0.0106658
-0.0504069 -0.0106658 -0.127847

-0.00183246 -0.0159937 -0.104998
-0.0159937 0.0805227 -0.0132325
-0.104998 -0.0132325 -0.234322

0.0257009 -0.0177588 -0.129454
-0.0177588 0.0643447 -0.0199041
-0.129454 -0.0199041 -0.341792

0.0538184 -0.0116504 -0.0877015
-0.0116504 0.0619736 -0.0271272
-0.0877015 -0.0271272 -0.435793

0.0554374 -0.00383572 -0.0300538
-0.00383572 0.0554374 -0.0300538
-0.0300538 -0.0300538 -0.482946

0.0554374 0.00383572 0.0300538
0.00383572 0.0554374 -0.0300538
0.0300538 -0.0300538 -0.482946

0.0538184 0.0116504 0.0877015
0.0116504 0.0619736 -0.0271272
0.0877015 -0.0271272 -0.435793

0.0257009 0.0177588 0.129454
0.0177588 0.0643447 -0.0199041
0.129454 -0.0199041 -0.341792

-0.00183246 0.0159937 0.104998
0.0159937 0.0805227 -0.0132325
0.104998 -0.0132325 -0.234322

-0.00498476 0.00853902 0.0504069
0.00853902 0.131392 -0.0106658
0.0504069 -0.0106658 -0.127847

-0.00498476 0.00853902 -0.0504069
0.00853902 0.131392 0.0106658
-0.0504069 0.0106658 -0.127847

-0.00183246 0.0159937 -0.104998
0.0159937 0.0805227 0.0132325
-0.104998 0.0132325 -0.234322

0.0257009 0.0177588 -0.129454
0.0177588 0.0643447 0.0199041
-0.129454 0.0199041 -0.341792

0.0538184 0.0116504 -0.0877015
0.0116504 0.0619736 0.0271272
-0.0877015 0.0271272 -0.435793

0.0554374 0.00383572 -0.0300538
0.00383572 0.0554374 0.0300538
-0.0300538 0.0300538 -0.482946

0.0554374 -0.00383572 0.0300538
-0.00383572 0.0554374 0.0300538
0.0300538 0.0300538 -0.482946

0.0538184 -0.0116504 0.0877015
-0.0116504 0.0619736 0.0271272
0.0877015 0.0271272 -0.435793

0.0257009 -0.0177588 0.129454
-0.0177588 0.0643447 0.0199041
0.129454 0.0199041 -0.341792

-0.00183246 -0.0159937 0.104998
-0.0159937 0.0805227 0.0132325
0.104998 0.0132325 -0.234322

-0.00498476 -0.00853902 0.0504069
-0.00853902 0.131392 0.0106658
0.0504069 0.0106658 -0.127847

-0.00346076 0.0245714 -0.0440887
0.0245714 0.109261 0.0292163
-0.0440887 0.0292163 -0.121714

0.00028347 0.0457557 -0.0918763
0.0457557 0.067893 0.0370389
-0.0918763 0.0370389 -0.217798

0.0276031 0.0511045 -0.113518
0.0511045 0.0563368 0.0566877
-0.113518 0.0566877 -0.312687

0.0573758 0.0343025 -0.0780609
0.0343025 0.0573758 0.0780609
-0.0780609 0.0780609 -0.393831

0.0619736 0.0116504 -0.0271272
0.0116504 0.0538184 0.0877015
-0.0271272 0.0877015 -0.435793

0.0619736 -0.0116504 0.0271272
-0.0116504 0.0538184 0.0877015
0.0271272 0.0877015 -0.435793

0.0573758 -0.0343025 0.0780609
-0.0343025 0.0573758 0.0780609
0.0780609 0.0780609 -0.393831

0.0276031 -0.0511045 0.113518
-0.0511045 0.0563368 0.0566877
0.113518 0.0566877 -0.312687

0.00028347 -0.0457557 0.0918763
-0.0457557 0.067893 0.0370389
0.0918763 0.0370389 -0.217798

-0.00346076 -0.0245714 0.0440887
-0.0245714 0.109261 0.0292163
0.0440887 0.0292163 -0.121714

5.60117e-05 0.0355048 -0.0313774
0.0355048 0.0694871 0.0390789
-0.0313774 0.0390789 -0.108168

0.00998158 0.0652766 -0.066631
0.0652766 0.0461188 0.051976
-0.066631 0.051976 -0.18065

0.0329838 0.0736876 -0.0816593
0.0736876 0.0329838 0.0816593
-0.0816593 0.0816593 -0.253332

0.0563368 0.0511045 -0.0566877
0.0511045 0.0276031 0.113518
-0.0566877 0.113518 -0.312687

0.0643447 0.0177588 -0.0199041
0.0177588 0.0257009 0.129454
-0.0199041 0.129454 -0.341792

0.0643447 -0.0177588 0.0199041
-0.0177588 0.0257009 0.129454
0.0199041 0.129454 -0.341792

0.0563368 -0.0511045 0.0566877
-0.0511045 0.0276031 0.113518
0.0566877 0.113518 -0.312687

0.0329838 -0.0736876 0.0816593
-0.0736876 0.0329838 0.0816593
0.0816593 0.0816593 -0.253332

0.00998158 -0.0652766 0.066631
-0.0652766 0.0461188 0.051976
0.066631 0.051976 -0.18065

5.60117e-05 -0.0355048 0.0313774
-0.0355048 0.0694871 0.0390789
0.0313774 0.0390789 -0.108168

0.00270508 0.0282139 -0.0190757
0.0282139 0.0269659 0.031046
-0.0190757 0.031046 -0.0884275

0.0216345 0.0565401 -0.0423336
0.0565401 0.0216345 0.0423336
-0.0423336 0.0423336 -0.133989

0.0461188 0.0652766 -0.051976
0.0652766 0.00998158 0.066631
-0.051976 0.066631 -0.18065

0.067893 0.0457557 -0.0370389
0.0457557 0.00028347 0.0918763
-0.0370389 0.0918763 -0.217798

0.0805227 0.0159937 -0.0132325
0.0159937 -0.00183246 0.104998
-0.0132325 0.104998 -0.234322

0.0805227 -0.0159937 0.0132325
-0.0159937 -0.00183246 0.104998
0.0132325 0.104998 -0.234322

0.067893 -0.0457557 0.0370389
-0.0457557 0.00028347 0.0918763
0.0370389 0.0918763 -0.217798

0.0461188 -0.0652766 0.051976
-0.0652766 0.00998158 0.066631
0.051976 0.066631 -0.18065

0.0216345 -0.0565401 0.0423336
-0.0565401 0.0216345 0.0423336
0.0423336 0.0423336 -0.133989

0.00270508 -0.0282139 0.0190757
-0.0282139 0.0269659 0.031046
0.0190757 0.031046 -0.0884275

-0.00147836 0.0122205 -0.0131882
0.0122205 -0.00147836 0.0131882
-0.0131882 0.0131882 -0.0616183

0.0269659 0.0282139 -0.031046
0.0282139 0.00270508 0.0190757
-0.031046 0.0190757 -0.0884275

0.0694871 0.0355048 -0.0390789
0.0355048 5.60117e-05 0.0313774
-0.0390789 0.0313774 -0.108168

0.109261 0.0245714 -0.0292163
0.0245714 -0.00346076 0.0440887
-0.0292163 0.0440887 -0.121714

0.131392 0.00853902 -0.0106658
0.00853902 -0.00498476 0.0504069
-0.0106658 0.0504069 -0.127847

0.131392 -0.00853902 0.0106658
-0.00853902 -0.00498476 0.0504069
0.0106658 0.0504069 -0.127847

0.109261 -0.0245714 0.0292163
-0.0245714 -0.00346076 0.0440887
0.0292163 0.0440887 -0.121714

0.0694871 -0.0355048 0.0390789
-0.0355048 5.60117e-05 0.0313774
0.0390789 0.0313774 -0.108168

0.0269659 -0.0282139 0.031046
-0.0282139 0.00270508 0.0190757
0.031046 0.0190757 -0.0884275

-0.00147836 -0.0122205 0.0131882
-0.0122205 -0.00147836 0.0131882
0.0131882 0.0131882 -0.0616183

0.00185072 -0.0154665 -0.00933849
-0.0154665 0.00185072 -0.00933849
-0.00933849 -0.00933849 -0.0210876

0.028736 -0.0362146 -0.0239692
-0.0362146 0.00199836 -0.0172243
-0.0239692 -0.0172243 -0.0454724

0.0746707 -0.0474103 -0.0332486
-0.0474103 -0.00780027 -0.0323414
-0.0332486 -0.0323414 -0.0533431

0.118784 -0.0298799 -0.0246882
-0.0298799 -0.0170249 -0.0470876
-0.0246882 -0.0470876 -0.0560011

0.139862 -0.00928191 -0.0095206
-0.00928191 -0.0192194 -0.0528674
-0.0095206 -0.0528674 -0.0595598

0.139862 0.00928191 0.0095206
0.00928191 -0.0192194 -0.0528674
0.0095206 -0.0528674 -0.0595598

0.118784 0.0298799 0.0246882
0.0298799 -0.0170249 -0.0470876
0.0246882 -0.0470876 -0.0560011

0.0746707 0.0474103 0.0332486
0.0474103 -0.00780027 -0.0323414
0.0332486 -0.0323414 -0.0533431

0.028736 0.0362146 0.0239692
0.0362146 0.00199836 -0.0172243
0.0239692 -0.0172243 -0.0454724

0.00185072 0.0154665 0.00933849
0.0154665 0.00185072 -0.00933849
0.00933849 -0.00933849 -0.0210876

0.00199836 -0.0362146 -0.0172243
-0.0362146 0.028736 -0.0239692
-0.0172243 -0.0239692 -0.0454724

0.0174135 -0.0746901 -0.0418073
-0.0746901 0.0174135 -0.0418073
-0.0418073 -0.0418073 -0.097617

0.0282807 -0.0918372 -0.0556126
-0.0918372 -0.0195922 -0.0781698
-0.0556126 -0.0781698 -0.156857

0.0395093 -0.0564433 -0.0385212
-0.0564433 -0.0527759 -0.115661
-0.0385212 -0.115661 -0.203712

0.0524142 -0.0172635 -0.0141434
-0.0172635 -0.0542414 -0.130442
-0.0141434 -0.130442 -0.219655

0.0524142 0.0172635 0.0141434
0.0172635 -0.0542414 -0.130442
0.0141434 -0.130442 -0.219655

0.0395093 0.0564433 0.0385212
0.0564433 -0.0527759 -0.115661
0.0385212 -0.115661 -0.203712

0.0282807 0.0918372 0.0556126
0.0918372 -0.0195922 -0.0781698
0.0556126 -0.0781698 -0.156857

0.0174135 0.0746901 0.0418073
0.0746901 0.0174135 -0.0418073
0.0418073 -0.0418073 -0.097617

0.00199836 0.0362146 0.0172243
0.0362146 0.028736 -0.0239692
0.0172243 -0.0239692 -0.0454724

-0.00780027 -0.0474103 -0.0323414
-0.0474103 0.0746707 -0.0332486
-0.0323414 -0.0332486 -0.0533431

-0.0195922 -0.0918372 -0.0781698
-0.0918372 0.0282807 -0.0556126
-0.0781698 -0.0556126 -0.156857

0.00391943 -0.114633 -0.110135
-0.114633 0.00391943 -0.110135
-0.110135 -0.110135 -0.251758

0.0246758 -0.0689674 -0.0672231
-0.0689674 -0.012772 -0.172303
-0.0672231 -0.172303 -0.334032

0.0171736 -0.0200961 -0.0220753
-0.0200961 -0.025051 -0.190917
-0.0220753 -0.190917 -0.371534

0.0171736 0.0200961 0.0220753
0.0200961 -0.025051 -0.190917
0.0220753 -0.190917 -0.371534

0.0246758 0.0689674 0.0672231
0.0689674 -0.012772 -0.172303
0.0672231 -0.172303 -0.334032

0.00391943 0.114633 0.110135
0.114633 0.00391943 -0.110135
0.110135 -0.110135 -0.251758

-0.0195922 0.0918372 0.0781698
0.0918372 0.0282807 -0.0556126
0.0781698 -0.0556126 -0.156857

-0.00780027 0.0474103 0.0323414
0.0474103 0.0746707 -0.0332486
0.0323414 -0.0332486 -0.0533431

-0.0170249 -0.0298799 -0.0470876
-0.0298799 0.118784 -0.0246882
-0.0470876 -0.0246882 -0.0560011

-0.0527759 -0.0564433 -0.115661
-0.0564433 0.0395093 -0.0385212
-0.115661 -0.0385212 -0.203712

-0.012772 -0.0689674 -0.172303
-0.0689674 0.0246758 -0.0672231
-0.172303 -0.0672231 -0.334032

0.0166821 -0.0375548 -0.100757
-0.0375548 0.0166821 -0.100757
-0.100757 -0.100757 -0.47271

-0.00768132 -0.00997058 -0.0309252
-0.00997058 -0.00643376 -0.107438
-0.0309252 -0.107438 -0.531133

-0.00768132 0.00997058 0.0309252
0.00997058 -0.00643376 -0.107438
0.0309252 -0.107438 -0.531133

0.0166821 0.0375548 0.100757
0.0375548 0.0166821 -0.100757
0.100757 -0.100757 -0.47271

-0.012772 0.0689674 0.172303
0.0689674 0.0246758 -0.0672231
0.172303 -0.0672231 -0.334032

-0.0527759 0.0564433 0.115661
0.0564433 0.0395093 -0.0385212
0.115661 -0.0385212 -0.203712

-0.0170249 0.0298799 0.0470876
0.0298799 0.118784 -0.0246882
0.0470876 -0.0246882 -0.0560011

-0.0192194 -0.00928191 -0.0528674
-0.00928191 0.139862 -0.0095206
-0.0528674 -0.0095206 -0.0595598

-0.0542414 -0.0172635 -0.130442
-0.0172635 0.0524142 -0.0141434
-0.130442 -0.0141434 -0.219655

-0.025051 -0.0200961 -0.190917
-0.0200961 0.0171736 -0.0220753
-0.190917 -0.0220753 -0.371534

-0.00643376 -0.00997058 -0.107438
-0.00997058 -0.00768132 -0.0309252
-0.107438 -0.0309252 -0.531133

-0.0354879 -0.00237065 -0.0319854
-0.00237065 -0.0354879 -0.0319854
-0.0319854 -0.0319854 -0.590664

-0.0354879 0.00237065 0.0319854
0.00237065 -0.0354879 -0.0319854
0.0319854 -0.0319854 -0.590664

-0.00643376 0.00997058 0.107438
0.00997058 -0.00768132 -0.0309252
0.107438 -0.0309252 -0.531133

-0.025051 0.0200961 0.190917
0.0200961 0.0171736 -0.0220753
0.190917 -0.0220753 -0.371534

-0.0542414 0.0172635 0.130442
0.0172635 0.0524142 -0.0141434
0.130442 -0.0141434 -0.219655

-0.0192194 0.00928191 0.0528674
0.00928191 0.139862 -0.0095206
0.0528674 -0.0095206 -0.0595598

-0.0192194 0.00928191 -0.0528674
0.00928191 0.139862 0.0095206
-0.0528674 0.0095206 -0.0595598

-0.0542414 0.0172635 -0.130442
0.0172635 0.0524142 0.0141434
-0.130442 0.0141434 -0.219655

-0.025051 0.0200961 -0.190917
0.0200961 0.0171736 0.0220753
-0.190917 0.0220753 -0.371534

-0.00643376 0.00997058 -0.107438
0.00997058 -0.00768132 0.0309252
-0.107438 0.0309252 -0.531133

-0.0354879 0.00237065 -0.0319854
0.00237065 -0.0354879 0.0319854
-0.0319854 0.0319854 -0.590664

-0.0354879 -0.00237065 0.0319854
-0.00237065 -0.0354879 0.0319854
0.0319854 0.0319854 -0.590664

-0.00643376 -0.00997058 0.107438
-0.00997058 -0.00768132 0.0309252
0.107438 0.0309252 -0.531133

-0.025051 -0.0200961 0.190917
-0.0200961 0.0171736 0.0220753
0.190917 0.0220753 -0.371534

-0.0542414 -0.0172635 0.130442
-0.0172635 0.0524142 0.0141434
0.130442 0.0141434 -0.219655

-0.0192194 -0.00928191 0.0528674
-0.00928191 0.139862 0.0095206
0.0528674 0.0095206 -0.0595598

-0.0170249 0.0298799 -0.0470876
0.0298799 0.118784 0.0246882
-0.0470876 0.0246882 -0.0560011

-0.0527759 0.0564433 -0.115661
0.0564433 0.0395093 0.0385212
-0.115661 0.0385212 -0.203712

-0.012772 0.0689674 -0.172303
0.0689674 0.0246758 0.0672231
-0.172303 0.0672231 -0.334032

0.0166821 0.0375548 -0.100757
0.0375548 0.0166821 0.100757
-0.100757 0.100757 -0.47271

-0.00768132 0.00997058 -0.0309252
0.00997058 -0.00643376 0.107438
-0.0309252 0.107438 -0.531133

-0.00768132 -0.00997058 0.0309252
-0.00997058 -0.00643376 0.107438
0.0309252 0.107438 -0.531133

0.0166821 -0.0375548 0.100757
-0.0375548 0.0166821 0.100757
0.100757 0.100757 -0.47271

-0.012772 -0.0689674 0.172303
-0.0689674 0.0246758 0.0672231
0.172303 0.0672231 -0.334032

-0.0527759 -0.0564433 0.115661
-0.0564433 0.0395093 0.0385212
0.115661 0.0385212 -0.203712

-0.0170249 -0.0298799 0.0470876
-0.0298799 0.118784 0.0246882
0.0470876 0.0246882 -0.0560011

-0.00780027 0.0474103 -0.0323414
0.0474103 0.0746707 0.0332486
-0.0323414 0.0332486 -0.0533431

-0.0195922 0.0918372 -0.0781698
0.0918372 0.0282807 0.0556126
-0.0781698 0.0556126 -0.156857

0.00391943 0.114633 -0.110135
0.114633 0.00391943 0.110135
-0.110135 0.110135 -0.251758

0.0246758 0.0689674 -0.0672231
0.0689674 -0.012772 0.172303
-0.0672231 0.172303 -0.334032

0.0171736 0.0200961 -0.0220753
0.0200961 -0.025051 0.190917
-0.0220753 0.190917 -0.371534

0.0171736 -0.0200961 0.0220753
-0.0200961 -0.025051 0.190917
0.0220753 0.190917 -0.371534

0.0246758 -0.0689674 0.0672231
-0.0689674 -0.012772 0.172303
0.0672231 0.172303 -0.334032

0.00391943 -0.114633 0.110135
-0.114633 0.00391943 0.110135
0.110135 0.110135 -0.251758

-0.0195922 -0.0918372 0.0781698
-0.0918372 0.0282807 0.0556126
0.0781698 0.0556126 -0.156857

-0.00780027 -0.0474103 0.0323414
-0.0474103 0.0746707 0.0332486
0.0323414 0.0332486 -0.0533431

0.00199836 0.0362146 -0.0172243
0.0362146 0.028736 0.0239692
-0.0172243 0.0239692 -0.0454724

0.0174135 0.0746901 -0.0418073
0.0746901 0.0174135 0.0418073
-0.0418073 0.0418073 -0.097617

0.0282807 0.0918372 -0.0556126
0.0918372 -0.0195922 0.0781698
-0.0556126 0.0781698 -0.156857

0.0395093 0.0564433 -0.0385212
0.0564433 -0.0527759 0.115661
-0.0385212 0.115661 -0.203712

0.0524142 0.0172635 -0.0141434
0.0172635 -0.0542414 0.130442
-0.0141434 0.130442 -0.219655

0.0524142 -0.0172635 0.0141434
-0.0172635 -0.0542414 0.130442
0.0141434 0.130442 -0.219655

0.0395093 -0.0564433 0.0385212
-0.0564433 -0.0527759 0.115661
0.0385212 0.115661 -0.203712

0.0282807 -0.0918372 0.0556126
-0.0918372 -0.0195922 0.0781698
0.0556126 0.0781698 -0.156857

0.0174135 -0.0746901 0.0418073
-0.0746901 0.0174135 0.0418073
0.0418073 0.0418073 -0.097617

0.00199836 -0.0362146 0.0172243
-0.0362146 0.028736 0.0239692
0.0172243 0.0239692 -0.0454724

0.00185072 0.0154665 -0.00933849
0.0154665 0.00185072 0.00933849
-0.00933849 0.00933849 -0.0210876

0.028736 0.0362146 -0.0239692
0.0362146 0.00199836 0.0172243
-0.0239692 0.0172243 -0.0454724

0.0746707 0.0474103 -0.0332486
0.0474103 -0.00780027 0.0323414
-0.0332486 0.0323414 -0.0533431

0.118784 0.0298799 -0.0246882
0.0298799 -0.0170249 0.0470876
-0.0246882 0.0470876 -0.0560011

0.139862 0.00928191 -0.0095206
0.00928191 -0.0192194 0.0528674
-0.0095206 0.0528674 -0.0595598

0.139862 -0.00928191 0.0095206
-0.00928191 -0.0192194 0.0528674
0.0095206 0.0528674 -0.0595598

0.118784 -0.0298799 0.0246882
-0.0298799 -0.0170249 0.0470876
0.0246882 0.0470876 -0.0560011

0.0746707 -0.0474103 0.0332486
-0.0474103 -0.00780027 0.0323414
0.0332486 0.0323414 -0.0533431

0.028736 -0.0362146 0.0239692
-0.0362146 0.00199836 0.0172243
0.0239692 0.0172243 -0.0454724

0.00185072 -0.0154665 0.00933849
-0.0154665 0.00185072 0.00933849
0.00933849 0.00933849 -0.0210876

0.00553078 -0.0139832 0.00077262
-0.0139832 0.00553078 0.00077262
0.00077262 0.00077262 0.00467988

0.0241135 -0.0339009 -0.00548854
-0.0339009 0.00147932 -0.00456123
-0.00548854 -0.00456123 -0.0117609

0.0784681 -0.0478017 -0.0120788
-0.0478017 -0.00239889 -0.00981028
-0.0120788 -0.00981028 0.00902067

0.122455 -0.023505 -0.0120928
-0.023505 -0.00838557 -0.0146868
-0.0120928 -0.0146868 0.0245004

0.121449 -0.00511618 -0.0057163
-0.00511618 -0.0161835 -0.0171018
-0.0057163 -0.0171018 0.0111467

0.121449 0.00511618 0.0057163
0.00511618 -0.0161835 -0.0171018
0.0057163 -0.0171018 0.0111467

0.122455 0.023505 0.0120928
0.023505 -0.00838557 -0.0146868
0.0120928 -0.0146868 0.0245004

0.0784681 0.0478017 0.0120788
0.0478017 -0.00239889 -0.00981028
0.0120788 -0.00981028 0.00902067

0.0241135 0.0339009 0.00548854
0.0339009 0.00147932 -0.00456123
0.00548854 -0.00456123 -0.0117609

0.00553078 0.0139832 -0.00077262
0.0139832 0.00553078 0.00077262
-0.00077262 0.00077262 0.00467988

0.00147932 -0.0339009 -0.00456123
-0.0339009 0.0241135 -0.00548854
-0.00456123 -0.00548854 -0.0117609

-0.00124229 -0.0710593 -0.0276453
-0.0710593 -0.00124229 -0.0276453
-0.0276453 -0.0276453 -0.0671657

-0.0077425 -0.103673 -0.0372208
-0.103673 -0.0784356 -0.0661322
-0.0372208 -0.0661322 -0.123647

-0.0313835 -0.0403171 -0.0325754
-0.0403171 -0.154921 -0.102847
-0.0325754 -0.102847 -0.178888

-0.0139858 -0.0125467 -0.0104457
-0.0125467 -0.135309 -0.114278
-0.0104457 -0.114278 -0.186119

-0.0139858 0.0125467 0.0104457
0.0125467 -0.135309 -0.114278
0.0104457 -0.114278 -0.186119

-0.0313835 0.0403171 0.0325754
0.0403171 -0.154921 -0.102847
0.0325754 -0.102847 -0.178888

-0.0077425 0.103673 0.0372208
0.103673 -0.0784356 -0.0661322
0.0372208 -0.0661322 -0.123647

-0.00124229 0.0710593 0.0276453
0.0710593 -0.00124229 -0.0276453
0.0276453 -0.0276453 -0.0671657

0.00147932 0.0339009 0.00456123
0.0339009 0.0241135 -0.00548854
0.00456123 -0.00548854 -0.0117609

-0.00239889 -0.0478017 -0.00981028
-0.0478017 0.0784681 -0.0120788
-0.00981028 -0.0120788 0.00902067

-0.0784356 -0.103673 -0.0661322
-0.103673 -0.0077425 -0.0372208
-0.0661322 -0.0372208 -0.123647

-0.0841231 -0.171081 -0.131333
-0.171081 -0.0841231 -0.131333
-0.131333 -0.131333 -0.24509

-0.0674034 -0.0690868 -0.0530798
-0.0690868 -0.12234 -0.262642
-0.0530798 -0.262642 -0.332209

-0.153458 -0.019501 -0.00979973
-0.019501 -0.179369 -0.253971
-0.00979973 -0.253971 -0.39988

-0.153458 0.019501 0.00979973
0.019501 -0.179369 -0.253971
0.00979973 -0.253971 -0.39988

-0.0674034 0.0690868 0.0530798
0.0690868 -0.12234 -0.262642
0.0530798 -0.262642 -0.332209

-0.0841231 0.171081 0.131333
0.171081 -0.0841231 -0.131333
0.131333 -0.131333 -0.24509

-0.0784356 0.103673 0.0661322
0.103673 -0.0077425 -0.0372208
0.0661322 -0.0372208 -0.123647

-0.00239889 0.0478017 0.00981028
0.0478017 0.0784681 -0.0120788
0.00981028 -0.0120788 0.00902067

-0.00838557 -0.023505 -0.0146868
-0.023505 0.122455 -0.0120928
-0.0146868 -0.0120928 0.0245004

-0.154921 -0.0403171 -0.102847
-0.0403171 -0.0313835 -0.0325754
-0.102847 -0.0325754 -0.178888

-0.12234 -0.0690868 -0.262642
-0.0690868 -0.0674034 -0.0530798
-0.262642 -0.0530798 -0.332209

-0.0438012 -0.00142518 -0.0993547
-0.00142518 -0.0438012 -0.0993547
-0.0993547 -0.0993547 -0.579895

-0.205807 -0.000925655 -0.016568
-0.000925655 -0.161726 -0.0865774
-0.016568 -0.0865774 -0.667703

-0.205807 0.000925655 0.016568
0.000925655 -0.161726 -0.0865774
0.016568 -0.0865774 -0.667703

-0.0438012 0.00142518 0.0993547
0.00142518 -0.0438012 -0.0993547
0.0993547 -0.0993547 -0.579895

-0.12234 0.0690868 0.262642
0.0690868 -0.0674034 -0.0530798
0.262642 -0.0530798 -0.332209

-0.154921 0.0403171 0.102847
0.0403171 -0.0313835 -0.0325754
0.102847 -0.0325754 -0.178888

-0.00838557 0.023505 0.0146868
0.023505 0.122455 -0.0120928
0.0146868 -0.0120928 0.0245004

-0.0161835 -0.00511618 -0.0171018
-0.00511618 0.121449 -0.0057163
-0.0171018 -0.0057163 0.0111467

-0.135309 -0.0125467 -0.114278
-0.0125467 -0.0139858 -0.0104457
-0.114278 -0.0104457 -0.186119

-0.179369 -0.019501 -0.253971
-0.019501 -0.153458 -0.00979973
-0.253971 -0.00979973 -0.39988

-0.161726 -0.000925655 -0.0865774
-0.000925655 -0.205807 -0.016568
-0.0865774 -0.016568 -0.667703

-0.277433 0.0013684 -0.0143424
0.0013684 -0.277433 -0.0143424
-0.0143424 -0.0143424 -0.724141

-0.277433 -0.0013684 0.0143424
-0.0013684 -0.277433 -0.0143424
0.0143424 -0.0143424 -0.724141

-0.161726 0.000925655 0.0865774
0.000925655 -0.205807 -0.016568
0.0865774 -0.016568 -0.667703

-0.179369 0.019501 0.253971
0.019501 -0.153458 -0.00979973
0.253971 -0.00979973 -0.39988

-0.135309 0.0125467 0.114278
0.0125467 -0.0139858 -0.0104457
0.114278 -0.0104457 -0.186119

-0.0161835 0.00511618 0.0171018
0.00511618 0.121449 -0.0057163
0.0171018 -0.0057163 0.0111467

-0.0161835 0.00511618 -0.0171018
0.00511618 0.121449 0.0057163
-0.0171018 0.0057163 0.0111467

-0.135309 0.0125467 -0.114278
0.0125467 -0.0139858 0.0104457
-0.114278 0.0104457 -0.186119

-0.179369 0.019501 -0.253971
0.019501 -0.153458 0.00979973
-0.253971 0.00979973 -0.39988

-0.161726 0.000925655 -0.0865774
0.000925655 -0.205807 0.016568
-0.0865774 0.016568 -0.667703

-0.277433 -0.0013684 -0.0143424
-0.0013684 -0.277433 0.0143424
-0.0143424 0.0143424 -0.724141

-0.277433 0.0013684 0.0143424
0.0013684 -0.277433 0.0143424
0.0143424 0.0143424 -0.724141

-0.161726 -0.000925655 0.0865774
-0.000925655 -0.205807 0.016568
0.0865774 0.016568 -0.667703

-0.179369 -0.019501 0.253971
-0.019501 -0.153458 0.00979973
0.253971 0.00979973 -0.39988

-0.135309 -0.0125467 0.114278
-0.0125467 -0.0139858 0.0104457
0.114278 0.0104457 -0.186119

-0.0161835 -0.00511618 0.0171018
-0.00511618 0.121449 0.0057163
0.0171018 0.0057163 0.0111467

-0.00838557 0.023505 -0.0146868
0.023505 0.122455 0.0120928
-0.0146868 0.0120928 0.0245004

-0.154921 0.0403171 -0.102847
0.0403171 -0.0313835 0.0325754
-0.102847 0.0325754 -0.178888

-0.12234 0.0690868 -0.262642
0.0690868 -0.0674034 0.0530798
-0.262642 0.0530798 -0.332209

-0.0438012 0.00142518 -0.0993547
0.00142518 -0.0438012 0.0993547
-0.0993547 0.0993547 -0.579895

-0.205807 0.000925655 -0.016568
0.000925655 -0.161726 0.0865774
-0.016568 0.0865774 -0.667703

-0.205807 -0.000925655 0.016568
-0.000925655 -0.161726 0.0865774
0.016568 0.0865774 -0.667703

-0.0438012 -0.00142518 0.0993547
-0.00142518 -0.0438012 0.0993547
0.0993547 0.0993547 -0.579895

-0.12234 -0.0690868 0.262642
-0.0690868 -0.0674034 0.0530798
0.262642 0.0530798 -0.332209

-0.154921 -0.0403171 0.102847
-0.0403171 -0.0313835 0.0325754
0.102847 0.0325754 -0.178888

-0.00838557 -0.023505 0.0146868
-0.023505 0.122455 0.0120928
0.0146868 0.0120928 0.0245004

-0.00239889 0.0478017 -0.00981028
0.0478017 0.0784681 0.0120788
-0.00981028 0.0120788 0.00902067

-0.0784356 0.103673 -0.0661322
0.103673 -0.0077425 0.0372208
-0.0661322 0.0372208 -0.123647

-0.0841231 0.171081 -0.131333
0.171081 -0.0841231 0.131333
-0.131333 0.131333 -0.24509

-0.0674034 0.0690868 -0.0530798
0.0690868 -0.12234 0.262642
-0.0530798 0.262642 -0.332209

-0.153458 0.019501 -0.00979973
0.019501 -0.179369 0.253971
-0.00979973 0.253971 -0.39988

-0.153458 -0.019501 0.00979973
-0.019501 -0.179369 0.253971
0.00979973 0.253971 -0.39988

-0.0674034 -0.0690868 0.0530798
-0.0690868 -0.12234 0.262642
0.0530798 0.262642 -0.332209

-0.0841231 -0.171081 0.131333
-0.171081 -0.0841231 0.131333
0.131333 0.131333 -0.24509

-0.0784356 -0.103673 0.0661322
-0.103673 -0.0077425 0.0372208
0.0661322 0.0372208 -0.123647

-0.00239889 -0.0478017 0.00981028
-0.0478017 0.0784681 0.0120788
0.00981028 0.0120788 0.00902067

0.00147932 0.0339009 -0.00456123
0.0339009 0.0241135 0.00548854
-0.00456123 0.00548854 -0.0117609

-0.00124229 0.0710593 -0.0276453
0.0710593 -0.00124229 0.0276453
-0.0276453 0.0276453 -0.0671657

-0.0077425 0.103673 -0.0372208
0.103673 -0.0784356 0.0661322
-0.0372208 0.0661322 -0.123647

-0.0313835 0.0403171 -0.0325754
0.0403171 -0.154921 0.102847
-0.0325754 0.102847 -0.178888

-0.0139858 0.0125467 -0.0104457
0.0125467 -0.135309 0.114278
-0.0104457 0.114278 -0.186119

-0.0139858 -0.0125467 0.0104457
-0.0125467 -0.135309 0.114278
0.0104457 0.114278 -0.186119

-0.0313835 -0.0403171 0.0325754
-0.0403171 -0.154921 0.102847
0.0325754 0.102847 -0.178888

-0.0077425 -0.103673 0.0372208
-0.103673 -0.0784356 0.0661322
0.0372208 0.0661322 -0.123647

-0.00124229 -0.0710593 0.0276453
-0.0710593 -0.00124229 0.0276453
0.0276453 0.0276453 -0.0671657

0.00147932 -0.0339009 0.00456123
-0.0339009 0.0241135 0.00548854
0.00456123 0.00548854 -0.0117609

0.00553078 0.0139832 0.00077262
0.0139832 0.00553078 -0.00077262
0.00077262 -0.00077262 0.00467988

0.0241135 0.0339009 -0.00548854
0.0339009 0.00147932 0.00456123
-0.00548854 0.00456123 -0.0117609

0.0784681 0.0478017 -0.0120788
0.0478017 -0.00239889 0.00981028
-0.0120788 0.00981028 0.00902067

0.122455 0.023505 -0.0120928
0.023505 -0.00838557 0.0146868
-0.0120928 0.0146868 0.0245004

0.121449 0.00511618 -0.0057163
0.00511618 -0.0161835 0.0171018
-0.0057163 0.0171018 0.0111467

0.121449 -0.00511618 0.0057163
-0.00511618 -0.0161835 0.0171018
0.0057163 0.0171018 0.0111467

0.122455 -0.023505 0.0120928
-0.023505 -0.00838557 0.0146868
0.0120928 0.0146868 0.0245004

0.0784681 -0.0478017 0.0120788
-0.0478017 -0.00239889 0.00981028
0.0120788 0.00981028 0.00902067

0.0241135 -0.0339009 0.00548854
-0.0339009 0.00147932 0.00456123
0.00548854 0.00456123 -0.0117609

0.00553078 -0.0139832 -0.00077262
-0.0139832 0.00553078 -0.00077262
-0.00077262 -0.00077262 0.00467988

0.00164294 -0.00110021 0.00910045
-0.00110021 0.00164294 0.00910045
0.00910045 0.00910045 0.000931077

0.0187225 -0.00565795 0.0117188
-0.00565795 0.0107522 0.0138022
0.0117188 0.0138022 -0.00316855

0.0406963 -0.0132558 0.0111649
-0.0132558 0.0119725 0.0300133
0.0111649 0.0300133 0.0016101

0.0573247 0.00187197 -0.00185204
0.00187197 0.0196148 0.0398323
-0.00185204 0.0398323 0.00857894

0.0363633 0.00429995 -0.00257509
0.00429995 0.0154234 0.0385849
-0.00257509 0.0385849 -0.00835229

0.0363633 -0.00429995 0.00257509
-0.00429995 0.0154234 0.0385849
0.00257509 0.0385849 -0.00835229

0.0573247 -0.00187197 0.00185204
-0.00187197 0.0196148 0.0398323
0.00185204 0.0398323 0.00857894

0.0406963 0.0132558 -0.0111649
0.0132558 0.0119725 0.0300133
-0.0111649 0.0300133 0.0016101

0.0187225 0.00565795 -0.0117188
0.00565795 0.0107522 0.0138022
-0.0117188 0.0138022 -0.00316855

0.00164294 0.00110021 -0.00910045
0.00110021 0.00164294 0.00910045
-0.00910045 0.00910045 0.000931077

0.0107522 -0.00565795 0.0138022
-0.00565795 0.0187225 0.0117188
0.0138022 0.0117188 -0.00316855

0.022848 -0.0159852 -0.00412443
-0.0159852 0.022848 -0.00412443
-0.00412443 -0.00412443 -0.0247379

0.0673638 -0.0344047 0.00632512
-0.0344047 0.0331099 0.00487577
0.00632512 0.00487577 -0.0037886

0.00539752 0.00661987 -0.0277616
0.00661987 -0.0159876 -0.00408492
-0.0277616 -0.00408492 -0.046879

0.0447831 -0.00452325 -0.00540661
-0.00452325 0.025705 -0.0321216
-0.00540661 -0.0321216 -0.029807

0.0447831 0.00452325 0.00540661
0.00452325 0.025705 -0.0321216
0.00540661 -0.0321216 -0.029807

0.00539752 -0.00661987 0.0277616
-0.00661987 -0.0159876 -0.00408492
0.0277616 -0.00408492 -0.046879

0.0673638 0.0344047 -0.00632512
0.0344047 0.0331099 0.00487577
-0.00632512 0.00487577 -0.0037886

0.022848 0.0159852 0.00412443
0.0159852 0.022848 -0.00412443
0.00412443 -0.00412443 -0.0247379

0.0107522 0.00565795 -0.0138022
0.00565795 0.0187225 0.0117188
-0.0138022 0.0117188 -0.00316855

0.0119725 -0.0132558 0.0300133
-0.0132558 0.0406963 0.0111649
0.0300133 0.0111649 0.0016101

0.0331099 -0.0344047 0.00487577
-0.0344047 0.0673638 0.00632512
0.00487577 0.00632512 -0.0037886

-0.295029 -0.0910201 -0.128837
-0.0910201 -0.295029 -0.128837
-0.128837 -0.128837 -0.257395

-0.380353 -0.0446916 0.0133649
-0.0446916 -0.379156 -0.289636
0.0133649 -0.289636 -0.347376

-0.383424 -0.0142296 0.00837586
-0.0142296 -0.368519 -0.272039
0.00837586 -0.272039 -0.375796

-0.383424 0.0142296 -0.00837586
0.0142296 -0.368519 -0.272039
-0.00837586 -0.272039 -0.375796

-0.380353 0.0446916 -0.0133649
0.0446916 -0.379156 -0.289636
-0.0133649 -0.289636 -0.347376

-0.295029 0.0910201 0.128837
0.0910201 -0.295029 -0.128837
0.128837 -0.128837 -0.257395

0.0331099 0.0344047 -0.00487577
0.0344047 0.0673638 0.00632512
-0.00487577 0.00632512 -0.0037886

0.0119725 0.0132558 -0.0300133
0.0132558 0.0406963 0.0111649
-0.0300133 0.0111649 0.0016101

0.0196148 0.00187197 0.0398323
0.00187197 0.0573247 -0.00185204
0.0398323 -0.00185204 0.00857894

-0.0159876 0.00661987 -0.00408492
0.00661987 0.00539752 -0.0277616
-0.00408492 -0.0277616 -0.046879

-0.379156 -0.0446916 -0.289636
-0.0446916 -0.380353 0.0133649
-0.289636 0.0133649 -0.347376

-0.747746 0.0335102 -0.00500161
0.0335102 -0.747746 -0.00500161
-0.00500161 -0.00500161 -0.989857

-0.68724 0.00878852 0.00834026
0.00878852 -0.619596 0.00126965
0.00834026 0.00126965 -0.905616

-0.68724 -0.00878852 -0.00834026
-0.00878852 -0.619596 0.00126965
-0.00834026 0.00126965 -0.905616

-0.747746 -0.0335102 0.00500161
-0.0335102 -0.747746 -0.00500161
0.00500161 -0.00500161 -0.989857

-0.379156 0.0446916 0.289636
0.0446916 -0.380353 0.0133649
0.289636 0.0133649 -0.347376

-0.0159876 -0.00661987 0.00408492
-0.00661987 0.00539752 -0.0277616
0.00408492 -0.0277616 -0.046879

0.0196148 -0.00187197 -0.0398323
-0.00187197 0.0573247 -0.00185204
-0.0398323 -0.00185204 0.00857894

0.0154234 0.00429995 0.0385849
0.00429995 0.0363633 -0.00257509
0.0385849 -0.00257509 -0.00835229

0.025705 -0.00452325 -0.0321216
-0.00452325 0.0447831 -0.00540661
-0.0321216 -0.00540661 -0.029807

-0.368519 -0.0142296 -0.272039
-0.0142296 -0.383424 0.00837586
-0.272039 0.00837586 -0.375796

-0.619596 0.00878852 0.00126965
0.00878852 -0.68724 0.00834026
0.00126965 0.00834026 -0.905616

-0.500259 0.00502694 0.0151758
0.00502694 -0.500259 0.0151758
0.0151758 0.0151758 -0.737848

-0.500259 -0.00502694 -0.0151758
-0.00502694 -0.500259 0.0151758
-0.0151758 0.0151758 -0.737848

-0.619596 -0.00878852 -0.00126965
-0.00878852 -0.68724 0.00834026
-0.00126965 0.00834026 -0.905616

-0.368519 0.0142296 0.272039
0.0142296 -0.383424 0.00837586
0.272039 0.00837586 -0.375796

0.025705 0.00452325 0.0321216
0.00452325 0.0447831 -0.00540661
0.0321216 -0.00540661 -0.029807

0.0154234 -0.00429995 -0.0385849
-0.00429995 0.0363633 -0.00257509
-0.0385849 -0.00257509 -0.00835229

0.0154234 -0.00429995 0.0385849
-0.00429995 0.0363633 0.00257509
0.0385849 0.00257509 -0.00835229

0.025705 0.00452325 -0.0321216
0.00452325 0.0447831 0.00540661
-0.0321216 0.00540661 -0.029807

-0.368519 0.0142296 -0.272039
0.0142296 -0.383424 -0.00837586
-0.272039 -0.00837586 -0.375796

-0.619596 -0.00878852 0.00126965
-0.00878852 -0.68724 -0.00834026
0.00126965 -0.00834026 -0.905616

-0.500259 -0.00502694 0.0151758
-0.00502694 -0.500259 -0.0151758
0.0151758 -0.0151758 -0.737848

-0.500259 0.00502694 -0.0151758
0.00502694 -0.500259 -0.0151758
-0.0151758 -0.0151758 -0.737848

-0.619596 0.00878852 -0.00126965
0.00878852 -0.68724 -0.00834026
-0.00126965 -0.00834026 -0.905616

-0.368519 -0.0142296 0.272039
-0.0142296 -0.383424 -0.00837586
0.272039 -0.00837586 -0.375796

0.025705 -0.00452325 0.0321216
-0.00452325 0.0447831 0.00540661
0.0321216 0.00540661 -0.029807

0.0154234 0.00429995 -0.0385849
0.00429995 0.0363633 0.00257509
-0.0385849 0.00257509 -0.00835229

0.0196148 -0.00187197 0.0398323
-0.00187197 0.0573247 0.00185204
0.0398323 0.00185204 0.00857894

-0.0159876 -0.00661987 -0.00408492
-0.00661987 0.00539752 0.0277616
-0.00408492 0.0277616 -0.046879

-0.379156 0.0446916 -0.289636
0.0446916 -0.380353 -0.0133649
-0.289636 -0.0133649 -0.347376

-0.747746 -0.0335102 -0.00500161
-0.0335102 -0.747746 0.00500161
-0.00500161 0.00500161 -0.989857

-0.68724 -0.00878852 0.00834026
-0.00878852 -0.619596 -0.00126965
0.00834026 -0.00126965 -0.905616

-0.68724 0.00878852 -0.00834026
0.00878852 -0.619596 -0.00126965
-0.00834026 -0.00126965 -0.905616

-0.747746 0.0335102 0.00500161
0.0335102 -0.747746 0.00500161
0.00500161 0.00500161 -0.989857

-0.379156 -0.0446916 0.289636
-0.0446916 -0.380353 -0.0133649
0.289636 -0.0133649 -0.347376

-0.0159876 0.00661987 0.00408492
0.00661987 0.00539752 0.0277616
0.00408492 0.0277616 -0.046879

0.0196148 0.00187197 -0.0398323
0.00187197 0.0573247 0.00185204
-0.0398323 0.00185204 0.00857894

0.0119725 0.0132558 0.0300133
0.0132558 0.0406963 -0.0111649
0.0300133 -0.0111649 0.0016101

0.0331099 0.0344047 0.00487577
0.0344047 0.0673638 -0.00632512
0.00487577 -0.00632512 -0.0037886

-0.295029 0.0910201 -0.128837
0.0910201 -0.295029 0.128837
-0.128837 0.128837 -0.257395

-0.380353 0.0446916 0.0133649
0.0446916 -0.379156 0.289636
0.0133649 0.289636 -0.347376

-0.383424 0.0142296 0.00837586
0.0142296 -0.368519 0.272039
0.00837586 0.272039 -0.375796

-0.383424 -0.0142296 -0.00837586
-0.0142296 -0.368519 0.272039
-0.00837586 0.272039 -0.375796

-0.380353 -0.0446916 -0.0133649
-0.0446916 -0.379156 0.289636
-0.0133649 0.289636 -0.347376

-0.295029 -0.0910201 0.128837
-0.0910201 -0.295029 0.128837
0.128837 0.128837 -0.257395

0.0331099 -0.0344047 -0.00487577
-0.0344047 0.0673638 -0.00632512
-0.00487577 -0.00632512 -0.0037886

0.0119725 -0.0132558 -0.0300133
-0.0132558 0.0406963 -0.0111649
-0.0300133 -0.0111649 0.0016101

0.0107522 0.00565795 0.0138022
0.00565795 0.0187225 -0.0117188
0.0138022 -0.0117188 -0.00316855

0.022848 0.0159852 -0.00412443
0.0159852 0.022848 0.00412443
-0.00412443 0.00412443 -0.0247379

0.0673638 0.0344047 0.00632512
0.0344047 0.0331099 -0.00487577
0.00632512 -0.00487577 -0.0037886

0.00539752 -0.00661987 -0.0277616
-0.00661987 -0.0159876 0.00408492
-0.0277616 0.00408492 -0.046879

0.0447831 0.00452325 -0.00540661
0.00452325 0.025705 0.0321216
-0.00540661 0.0321216 -0.029807

0.0447831 -0.00452325 0.00540661
-0.00452325 0.025705 0.0321216
0.00540661 0.0321216 -0.029807

0.00539752 0.00661987 0.0277616
0.00661987 -0.0159876 0.00408492
0.0277616 0.00408492 -0.046879

0.0673638 -0.0344047 -0.00632512
-0.0344047 0.0331099 -0.00487577
-0.00632512 -0.00487577 -0.0037886

0.022848 -0.0159852 0.00412443
-0.0159852 0.022848 0.00412443
0.00412443 0.00412443 -0.0247379

0.0107522 -0.00565795 -0.0138022
-0.00565795 0.0187225 -0.0117188
-0.0138022 -0.0117188 -0.00316855

0.00164294 0.00110021 0.00910045
0.00110021 0.00164294 -0.00910045
0.00910045 -0.00910045 0.000931077

0.0187225 0.00565795 0.0117188
0.00565795 0.0107522 -0.0138022
0.0117188 -0.0138022 -0.00316855

0.0406963 0.0132558 0.0111649
0.0132558 0.0119725 -0.0300133
0.0111649 -0.0300133 0.0016101

0.0573247 -0.00187197 -0.00185204
-0.00187197 0.0196148 -0.0398323
-0.00185204 -0.0398323 0.00857894

0.0363633 -0.00429995 -0.00257509
-0.00429995 0.0154234 -0.0385849
-0.00257509 -0.0385849 -0.00835229

0.0363633 0.00429995 0.00257509
0.00429995 0.0154234 -0.0385849
0.00257509 -0.0385849 -0.00835229

0.0573247 0.00187197 0.00185204
0.00187197 0.0196148 -0.0398323
0.00185204 -0.0398323 0.00857894

0.0406963 -0.0132558 -0.0111649
-0.0132558 0.0119725 -0.0300133
-0.0111649 -0.0300133 0.0016101

0.0187225 -0.00565795 -0.0117188
-0.00565795 0.0107522 -0.0138022
-0.0117188 -0.0138022 -0.00316855

0.00164294 -0.00110021 -0.00910045
-0.00110021 0.00164294 -0.00910045
-0.00910045 -0.00910045 0.000931077

SCALARS relative_volume float
LOOKUP_TABLE default
0.980476
0.984549
0.98466
0.984704
0.984623
0.984623
0.984704
0.98466
0.984549
0.980476
0.984549
0.988887
0.988932
0.989052
0.989022
0.989022
0.989052
0.988932
0.988887
0.984549
0.98466
0.988932
0.989011
0.989101
0.989064
0.989064
0.989101
0.989011
0.988932
0.98466
0.984704
0.989052
0.989101
0.989195
0.989155
0.989155
0.989195
0.989101
0.989052
0.984704
0.984623
0.989022
0.989064
0.989155
0.989116
0.989116
0.989155
0.989064
0.989022
0.984623
0.984623
0.989022
0.989064
0.989155
0.989116
0.989116
0.989155
0.989064
0.989022
0.984623
0.984704
0.989052
0.989101
0.989195
0.989155
0.989155
0.989195
0.989101
0.989052
0.984704
0.98466
0.988932
0.989011
0.989101
0.989064
0.989064
0.989101
0.989011
0.988932
0.98466
0.984549
0.988887
0.988932
0.989052
0.989022
0.989022
0.989052
0.988932
0.988887
0.984549
0.980476
0.984549
0.98466
0.984704
0.984623
0.984623
0.984704
0.98466
0.984549
0.980476
0.992275
0.990565
0.991158
0.991201
0.991235
0.991235
0.991201
0.991158
0.990565
0.992275
0.990565
0.988924
0.989271
0.989134
0.989084
0.989084
0.989134
0.989271
0.988924
0.990565
0.991158
0.989271
0.989591
0.989392
0.989314
0.989314
0.989392
0.989591
0.989271
0.991158
0.991201
0.989134
0.989392
0.989152
0.989049
0.989049
0.989152
0.989392
0.989134
0.991201
0.991235
0.989084
0.989314
0.989049
0.988936
0.988936
0.989049
0.989314
0.989084
0.991235
0.991235
0.989084
0.989314
0.989049
0.988936
0.988936
0.989049
0.989314
0.989084
0.991235
0.991201
0.989134
0.989392
0.989152
0.989049
0.989049
0.989152
0.989392
0.989134
0.991201
0.991158
0.989271
0.989591
0.989392
0.989314
0.989314
0.989392
0.989591
0.989271
0.991158
0.990565
0.988924
0.989271
0.989134
0.989084
0.989084
0.989134
0.989271
0.988924
0.990565
0.992275
0.990565
0.991158
0.991201
0.991235
0.991235
0.991201
0.991158
0.990565
0.992275
0.993897
0.992857
0.992191
0.992027
0.991927
0.991927
0.992027
0.992191
0.992857
0.993897
0.992857
0.991439
0.990617
0.990246
0.990031
0.990031
0.990246
0.990617
0.991439
0.992857
0.992191
0.990617
0.989506
0.988979
0.988666
0.988666
0.988979
0.989506
0.990617
0.992191
0.992027
0.990246
0.988979
0.98833
0.987951
0.987951
0.98833
0.988979
0.990246
0.992027
0.991927
0.990031
0.988666
0.987951
0.987535
0.987535
0.987951
0.988666
0.990031
0.991927
0.991927
0.990031
0.988666
0.987951
0.987535
0.987535
0.987951
0.988666
0.990031
0.991927
0.992027
0.990246
0.988979
0.98833
0.987951
0.987951
0.98833
0.988979
0.990246
0.992027
0.992191
0.990617
0.989506
0.988979
0.988666
0.988666
0.988979
0.989506
0.990617
0.992191
0.992857
0.991439
0.990617
0.990246
0.990031
0.990031
0.990246
0.990617
0.991439
0.992857
0.993897
0.992857
0.992191
0.992027
0.991927
0.991927
0.992027
0.992191
0.992857
0.993897
0.994857
0.993973
0.993118
0.992561
0.992305
0.992305
0.992561
0.993118
0.993973
0.994857
0.993973
0.99259
0.991334
0.990432
0.98999
0.98999
0.990432
0.991334
0.99259
0.993973
0.993118
0.991334
0.989629
0.988344
0.98769
0.98769
0.988344
0.989629
0.991334
0.993118
0.992561
0.990432
0.988344
0.986739
0.985904
0.985904
0.986739
0.988344
0.990432
0.992561
0.992305
0.98999
0.98769
0.985904
0.984967
0.984967
0.985904
0.98769
0.98999
0.992305
0.992305
0.98999
0.98769
0.985904
0.984967
0.984967
0.985904
0.98769
0.98999
0.992305
0.992561
0.990432
0.988344
0.986739
0.985904
0.985904
0.986739
0.988344
0.990432
0.992561
0.993118
0.991334
0.989629
0.988344
0.98769
0.98769
0.988344
0.989629
0.991334
0.993118
0.993973
0.99259
0.991334
0.990432
0.98999
0.98999
0.990432
0.991334
0.99259
0.993973
0.994857
0.993973
0.993118
0.992561
0.992305
0.992305
0.992561
0.993118
0.993973
0.994857
0.995824
0.99499
0.99402
0.993282
0.992891
0.992891
0.993282
0.99402
0.99499
0.995824
0.99499
0.993508
0.991753
0.990344
0.989598
0.989598
0.990344
0.991753
0.993508
0.99499
0.99402
0.991753
0.989086
0.986884
0.985676
0.985676
0.986884
0.989086
0.991753
0.99402
0.993282
0.990344
0.986884
0.983977
0.982354
0.982354
0.983977
0.986884
0.990344
0.993282
0.992891
0.989598
0.985676
0.982354
0.980485
0.980485
0.982354
0.985676
0.989598
0.992891
0.992891
0.989598
0.985676
0.982354
0.980485
0.980485
0.982354
0.985676
0.989598
0.992891
0.993282
0.990344
0.986884
0.983977
0.982354
0.982354
0.983977
0.986884
0.990344
0.993282
0.99402
0.991753
0.989086
0.986884
0.985676
0.985676
0.986884
0.989086
0.991753
0.99402
0.99499
0.993508
0.991753
0.990344
0.989598
0.989598
0.990344
0.991753
0.993508
0.99499
0.995824
0.99499
0.99402
0.993282
0.992891
0.992891
0.993282
0.99402
0.99499
0.995824
0.997023
0.996194
0.995224
0.994478
0.994073
0.994073
0.994478
0.995224
0.996194
0.997023
0.996194
0.994271
0.991797
0.989754
0.988675
0.988675
0.989754
0.991797
0.994271
0.996194
0.995224
0.991797
0.987544
0.983903
0.981883
0.981883
0.983903
0.987544
0.991797
0.995224
0.994478
0.989754
0.983903
0.978807
0.975935
0.975935
0.978807
0.983903
0.989754
0.994478
0.994073
0.988675
0.981883
0.975935
0.972559
0.972559
0.975935
0.981883
0.988675
0.994073
0.994073
0.988675
0.981883
0.975935
0.972559
0.972559
0.975935
0.981883
0.988675
0.994073
0.994478
0.989754
0.983903
0.978807
0.975935
0.975935
0.978807
0.983903
0.989754
0.994478
0.995224
0.991797
0.987544
0.983903
0.981883
0.981883
0.983903
0.987544
0.991797
0.995224
0.996194
0.994271
0.991797
0.989754
0.988675
0.988675
0.989754
0.991797
0.994271
0.996194
0.997023
0.996194
0.995224
0.994478
0.994073
0.994073
0.994478
0.995224
0.996194
0.997023
0.998337
0.997605
0.996778
0.996229
0.995968
0.995968
0.996229
0.996778
0.997605
0.998337
0.997605
0.994954
0.991417
0.988593
0.987229
0.987229
0.988593
0.991417
0.994954
0.997605
0.996778
0.991417
0.98427
0.978298
0.975059
0.975059
0.978298
0.98427
0.991417
0.996778
0.996229
0.988593
0.978298
0.96966
0.964851
0.964851
0.96966
0.978298
0.988593
0.996229
0.995968
0.987229
0.975059
0.964851
0.959323
0.959323
0.964851
0.975059
0.987229
0.995968
0.995968
0.987229
0.975059
0.964851
0.959323
0.959323
0.964851
0.975059
0.987229
0.995968
0.996229
0.988593
0.978298
0.96966
0.964851
0.964851
0.96966
0.978298
0.988593
0.996229
0.996778
0.991417
0.98427
0.978298
0.975059
0.975059
0.978298
0.98427
0.991417
0.996778
0.997605
0.994954
0.991417
0.988593
0.987229
0.987229
0.988593
0.991417
0.994954
0.997605
0.998337
0.997605
0.996778
0.996229
0.995968
0.995968
0.996229
0.996778
0.997605
0.998337
0.999512
0.998979
0.998555
0.998531
0.998476
0.998476
0.998531
0.998555
0.998979
0.999512
0.998979
0.99593
0.990775
0.987129
0.985916
0.985916
0.987129
0.990775
0.99593
0.998979
0.998555
0.990775
0.978039
0.968403
0.963995
0.963995
0.968403
0.978039
0.990775
0.998555
0.998531
0.987129
0.968403
0.954697
0.94859
0.94859
0.954697
0.968403
0.987129
0.998531
0.998476
0.985916
0.963995
0.94859
0.942369
0.942369
0.94859
0.963995
0.985916
0.998476
0.998476
0.985916
0.963995
0.94859
0.942369
0.942369
0.94859
0.963995
0.985916
0.998476
0.998531
0.987129
0.968403
0.954697
0.94859
0.94859
0.954697
0.968403
0.987129
0.998531
0.998555
0.990775
0.978039
0.968403
0.963995
0.963995
0.968403
0.978039
0.990775
0.998555
0.998979
0.99593
0.990775
0.987129
0.985916
0.985916
0.987129
0.990775
0.99593
0.998979
0.999512
0.998979
0.998555
0.998531
0.998476
0.998476
0.998531
0.998555
0.998979
0.999512
1.00026
0.999975
1.00086
1.00176
1.00129
1.00129
1.00176
1.00086
0.999975
1.00026
0.999975
0.996976
0.991199
0.987447
0.987618
0.987618
0.987447
0.991199
0.996976
0.999975
1.00086
0.991199
0.961569
0.947974
0.946493
0.946493
0.947974
0.961569
0.991199
1.00086
1.00176
0.987447
0.947974
0.935451
0.934115
0.934115
0.935451
0.947974
0.987447
1.00176
1.00129
0.987618
0.946493
0.934115
0.935466
0.935466
0.934115
0.946493
0.987618
1.00129
1.00129
0.987618
0.946493
0.934115
0.935466
0.935466
0.934115
0.946493
0.987618
1.00129
1.00176
0.987447
0.947974
0.935451
0.934115
0.934115
0.935451
0.947974
0.987447
1.00176
1.00086
0.991199
0.961569
0.947974
0.946493
0.946493
0.947974
0.961569
0.991199
1.00086
0.999975
0.996976
0.991199
0.987447
0.987618
0.987618
0.987447
0.991199
0.996976
0.999975
1.00026
0.999975
1.00086
1.00176
1.00129
1.00129
1.00176
1.00086
0.999975
1.00026
1.00004
1.00039
1.00067
1.00113
1.00032
1.00032
1.00113
1.00067
1.00039
1.00004
1.00039
1.00007
1.00104
0.998089
1.00006
1.00006
0.998089
1.00104
1.00007
1.00039
1.00067
1.00104
0.945997
0.925279
0.939332
0.939332
0.925279
0.945997
1.00104
1.00067
1.00113
0.998089
0.925279
0.90857
0.933017
0.933017
0.90857
0.925279
0.998089
1.00113
1.00032
1.00006
0.939332
0.933017
0.955924
0.955924
0.933017
0.939332
1.00006
1.00032
1.00032
1.00006
0.939332
0.933017
0.955924
0.955924
0.933017
0.939332
1.00006
1.00032
1.00113
0.998089
0.925279
0.90857
0.933017
0.933017
0.90857
0.925279
0.998089
1.00113
1.00067
1.00104
0.945997
0.925279
0.939332
0.939332
0.925279
0.945997
1.00104
1.00067
1.00039
1.00007
1.00104
0.998089
1.00006
1.00006
0.998089
1.00104
1.00007
1.00039
1.00004
1.00039
1.00067
1.00113
1.00032
1.00032
1.00113
1.00067
1.00039
1.00004
TENSORS Lagrange_strain float
0.0111741 0.00116116 -0.0253581
0.00116116 0.0111741 -0.0253581
-0.0253581 -0.0253581 -0.0376425

0.00694847 -0.000371594 -0.0194592
-0.000371594 0.0112354 -0.025391
-0.0194592 -0.025391 -0.0304952

0.00553502 -0.000379985 -0.0134236
-0.000379985 0.011936 -0.0266617
-0.0134236 -0.0266617 -0.0299845

0.00533321 -0.000246476 -0.00814591
-0.000246476 0.0122238 -0.0276981
-0.00814591 -0.0276981 -0.0301345

0.00539273 -8.54005e-05 -0.00273684
-8.54005e-05 0.012362 -0.0282787
-0.00273684 -0.0282787 -0.0304467

0.00539265 8.5363e-05 0.00273681
8.5363e-05 0.012362 -0.0282787
0.00273681 -0.0282787 -0.0304467

0.00533328 0.000246364 0.00814587
0.000246364 0.0122238 -0.0276982
0.00814587 -0.0276982 -0.0301345

0.00553506 0.000379854 0.0134236
0.000379854 0.011936 -0.0266617
0.0134236 -0.0266617 -0.0299845

0.00694834 0.000371547 0.0194591
0.000371547 0.0112354 -0.025391
0.0194591 -0.025391 -0.0304952

0.0111742 -0.00116108 0.0253581
-0.00116108 0.0111741 -0.0253581
0.0253581 -0.0253581 -0.0376425

0.0112354 -0.000371594 -0.025391
-0.000371594 0.00694847 -0.0194592
-0.025391 -0.0194592 -0.0304952

0.00704175 -0.000717352 -0.0194475
-0.000717352 0.00704175 -0.0194475
-0.0194475 -0.0194475 -0.0230588

0.00566127 -0.00071737 -0.0133076
-0.00071737 0.00734802 -0.0202632
-0.0133076 -0.0202632 -0.0223349

0.00531438 -0.000492119 -0.00798156
-0.000492119 0.00760891 -0.021133
-0.00798156 -0.021133 -0.0222921

0.00528245 -0.000173488 -0.00266535
-0.000173488 0.00773553 -0.0216504
-0.00266535 -0.0216504 -0.0224798

0.00528237 0.000173526 0.00266531
0.000173526 0.00773553 -0.0216504
0.00266531 -0.0216504 -0.0224798

0.00531438 0.000492194 0.00798148
0.000492194 0.00760891 -0.021133
0.00798148 -0.021133 -0.0222921

0.00566131 0.000717426 0.0133076
0.000717426 0.00734802 -0.0202632
0.0133076 -0.0202632 -0.0223349

0.00704172 0.000717371 0.0194474
0.000717371 0.00704175 -0.0194475
0.0194474 -0.0194475 -0.0230588

0.0112355 0.0003716 0.025391
0.0003716 0.00694847 -0.0194592
0.025391 -0.0194592 -0.0304952

0.011936 -0.000379985 -0.0266617
-0.000379985 0.00553502 -0.0134236
-0.0266617 -0.0134236 -0.0299845

0.00734802 -0.00071737 -0.0202632
-0.00071737 0.00566127 -0.0133076
-0.0202632 -0.0133076 -0.0223349

0.00592469 -0.00068301 -0.0138772
-0.00068301 0.00592469 -0.0138772
-0.0138772 -0.0138772 -0.0215638

0.00554429 -0.000483851 -0.0083084
-0.000483851 0.00616448 -0.0145055
-0.0083084 -0.0145055 -0.0215538

0.00548632 -0.00017288 -0.00277069
-0.00017288 0.00630677 -0.0148969
-0.00277069 -0.0148969 -0.0217686

0.0054864 0.000172917 0.00277072
0.000172917 0.00630677 -0.0148969
0.00277072 -0.0148969 -0.0217686

0.00554422 0.000483888 0.00830844
0.000483888 0.00616448 -0.0145055
0.00830844 -0.0145055 -0.0215538

0.00592469 0.00068301 0.0138772
0.00068301 0.00592469 -0.0138772
0.0138772 -0.0138772 -0.0215638

0.00734796 0.000717379 0.0202632
0.000717379 0.00566127 -0.0133076
0.0202632 -0.0133076 -0.0223349

0.011936 0.000379923 0.0266617
0.000379923 0.00553502 -0.0134236
0.0266617 -0.0134236 -0.0299845

0.0122238 -0.000246476 -0.0276981
-0.000246476 0.00533321 -0.00814591
-0.0276981 -0.00814591 -0.0301345

0.00760891 -0.000492119 -0.021133
-0.000492119 0.00531438 -0.00798156
-0.021133 -0.00798156 -0.0222921

0.00616448 -0.000483851 -0.0145055
-0.000483851 0.00554429 -0.0083084
-0.0145055 -0.0083084 -0.0215538

0.00579183 -0.000341555 -0.00869748
-0.000341555 0.00579183 -0.00869748
-0.00869748 -0.00869748 -0.0215979

0.00573858 -0.000122862 -0.002902
-0.000122862 0.00594384 -0.00894234
-0.002902 -0.00894234 -0.0218548

0.00573858 0.000122787 0.002902
0.000122787 0.00594384 -0.00894234
0.002902 -0.00894234 -0.0218548

0.00579183 0.00034148 0.00869748
0.00034148 0.00579183 -0.00869748
0.00869748 -0.00869748 -0.0215979

0.00616455 0.000483888 0.0145056
0.000483888 0.00554429 -0.0083084
0.0145056 -0.0083084 -0.0215537

0.00760882 0.000492166 0.0211331
0.000492166 0.00531438 -0.00798155
0.0211331 -0.00798155 -0.0222921

0.0122237 0.00024652 0.0276981
0.00024652 0.00533321 -0.00814591
0.0276981 -0.00814591 -0.0301345

0.012362 -8.54005e-05 -0.0282787
-8.54005e-05 0.00539273 -0.00273684
-0.0282787 -0.00273684 -0.0304467

0.00773553 -0.000173488 -0.0216504
-0.000173488 0.00528245 -0.00266535
-0.0216504 -0.00266535 -0.0224798

0.00630677 -0.00017288 -0.0148969
-0.00017288 0.00548632 -0.00277069
-0.0148969 -0.00277069 -0.0217686

0.00594384 -0.000122862 -0.00894234
-0.000122862 0.00573858 -0.002902
-0.00894234 -0.002902 -0.0218548

0.00589834 -4.40654e-05 -0.00298558
-4.40654e-05 0.00589834 -0.00298558
-0.00298558 -0.00298558 -0.022141

0.00589819 4.40654e-05 0.00298551
4.40654e-05 0.00589834 -0.00298558
0.00298551 -0.00298558 -0.022141

0.00594406 0.000122899 0.00894231
0.000122899 0.00573858 -0.00290199
0.00894231 -0.00290199 -0.0218548

0.00630677 0.00017288 0.0148969
0.00017288 0.00548632 -0.00277069
0.0148969 -0.00277069 -0.0217686

0.00773554 0.000173488 0.0216505
0.000173488 0.00528245 -0.00266535
0.0216505 -0.00266535 -0.0224798

0.0123618 8.54205e-05 0.0282787
8.54205e-05 0.00539273 -0.00273684
0.0282787 -0.00273684 -0.0304467

0.012362 8.5363e-05 -0.0282787
8.5363e-05 0.00539265 0.00273681
-0.0282787 0.00273681 -0.0304467

0.00773553 0.000173526 -0.0216504
0.000173526 0.00528237 0.00266531
-0.0216504 0.00266531 -0.0224798

0.00630677 0.000172917 -0.0148969
0.000172917 0.0054864 0.00277072
-0.0148969 0.00277072 -0.0217686

0.00594384 0.000122787 -0.00894234
0.000122787 0.00573858 0.002902
-0.00894234 0.002902 -0.0218548

0.00589834 4.40654e-05 -0.00298558
4.40654e-05 0.00589819 0.00298551
-0.00298558 0.00298551 -0.022141

0.00589819 -4.40654e-05 0.00298551
-4.40654e-05 0.00589819 0.00298551
0.00298551 0.00298551 -0.022141

0.00594406 -0.000122825 0.00894231
-0.000122825 0.00573858 0.00290199
0.00894231 0.00290199 -0.0218548

0.00630677 -0.000172917 0.0148969
-0.000172917 0.0054864 0.00277072
0.0148969 0.00277072 -0.0217686

0.00773554 -0.000173526 0.0216505
-0.000173526 0.00528237 0.00266531
0.0216505 0.00266531 -0.0224798

0.0123618 -8.5383e-05 0.0282787
-8.5383e-05 0.00539265 0.0027368
0.0282787 0.0027368 -0.0304467

0.0122238 0.000246364 -0.0276982
0.000246364 0.00533328 0.00814587
-0.0276982 0.00814587 -0.0301345

0.00760891 0.000492194 -0.021133
0.000492194 0.00531438 0.00798148
-0.021133 0.00798148 -0.0222921

0.00616448 0.000483888 -0.0145055
0.000483888 0.00554422 0.00830844
-0.0145055 0.00830844 -0.0215538

0.00579183 0.00034148 -0.00869748
0.00034148 0.00579183 0.00869748
-0.00869748 0.00869748 -0.0215979

0.00573858 0.000122899 -0.00290199
0.000122899 0.00594406 0.00894231
-0.00290199 0.00894231 -0.0218548

0.00573858 -0.000122825 0.00290199
-0.000122825 0.00594406 0.00894231
0.00290199 0.00894231 -0.0218548

0.00579183 -0.000341405 0.00869748
-0.000341405 0.00579183 0.00869748
0.00869748 0.00869748 -0.0215979

0.00616455 -0.000483926 0.0145056
-0.000483926 0.00554422 0.00830844
0.0145056 0.00830844 -0.0215537

0.00760882 -0.000492241 0.0211331
-0.000492241 0.00531438 0.00798148
0.0211331 0.00798148 -0.0222921

0.0122237 -0.000246408 0.0276981
-0.000246408 0.00533328 0.00814587
0.0276981 0.00814587 -0.0301345

0.011936 0.000379854 -0.0266617
0.000379854 0.00553506 0.0134236
-0.0266617 0.0134236 -0.0299845

0.00734802 0.000717426 -0.0202632
0.000717426 0.00566131 0.0133076
-0.0202632 0.0133076 -0.0223349

0.00592469 0.00068301 -0.0138772
0.00068301 0.00592469 0.0138772
-0.0138772 0.0138772 -0.0215638

0.00554429 0.000483888 -0.0083084
0.000483888 0.00616455 0.0145056
-0.0083084 0.0145056 -0.0215537

0.00548632 0.00017288 -0.00277069
0.00017288 0.00630677 0.0148969
-0.00277069 0.0148969 -0.0217686

0.0054864 -0.000172917 0.00277072
-0.000172917 0.00630677 0.0148969
0.00277072 0.0148969 -0.0217686

0.00554422 -0.000483926 0.00830844
-0.000483926 0.00616455 0.0145056
0.00830844 0.0145056 -0.0215537

0.00592469 -0.00068301 0.0138772
-0.00068301 0.00592469 0.0138772
0.0138772 0.0138772 -0.0215638

0.00734796 -0.000717435 0.0202632
-0.000717435 0.00566131 0.0133076
0.0202632 0.0133076 -0.0223349

0.011936 -0.000379792 0.0266617
-0.000379792 0.00553506 0.0134236
0.0266617 0.0134236 -0.0299845

0.0112354 0.000371547 -0.025391
0.000371547 0.00694834 0.0194591
-0.025391 0.0194591 -0.0304952

0.00704175 0.000717371 -0.0194475
0.000717371 0.00704172 0.0194474
-0.0194475 0.0194474 -0.0230588

0.00566127 0.000717379 -0.0133076
0.000717379 0.00734796 0.0202632
-0.0133076 0.0202632 -0.0223349

0.00531438 0.000492166 -0.00798155
0.000492166 0.00760882 0.0211331
-0.00798155 0.0211331 -0.0222921

0.00528245 0.000173488 -0.00266535
0.000173488 0.00773554 0.0216505
-0.00266535 0.0216505 -0.0224798

0.00528237 -0.000173526 0.00266531
-0.000173526 0.00773554 0.0216505
0.00266531 0.0216505 -0.0224798

0.00531438 -0.000492241 0.00798148
-0.000492241 0.00760882 0.0211331
0.00798148 0.0211331 -0.0222921

0.00566131 -0.000717435 0.0133076
-0.000717435 0.00734796 0.0202632
0.0133076 0.0202632 -0.0223349

0.00704172 -0.00071739 0.0194474
-0.00071739 0.00704172 0.0194474
0.0194474 0.0194474 -0.0230588

0.0112355 -0.000371553 0.025391
-0.000371553 0.00694834 0.0194591
0.025391 0.0194591 -0.0304952

0.0111741 -0.00116108 -0.0253581
-0.00116108 0.0111742 0.0253581
-0.0253581 0.0253581 -0.0376425

0.00694847 0.0003716 -0.0194592
0.0003716 0.0112355 0.025391
-0.0194592 0.025391 -0.0304952

0.00553502 0.000379923 -0.0134236
0.000379923 0.011936 0.0266617
-0.0134236 0.0266617 -0.0299845

0.00533321 0.00024652 -0.00814591
0.00024652 0.0122237 0.0276981
-0.00814591 0.0276981 -0.0301345

0.00539273 8.54205e-05 -0.00273684
8.54205e-05 0.0123618 0.0282787
-0.00273684 0.0282787 -0.0304467

0.00539265 -8.5383e-05 0.0027368
-8.5383e-05 0.0123618 0.0282787
0.0027368 0.0282787 -0.0304467

0.00533328 -0.000246408 0.00814587
-0.000246408 0.0122237 0.0276981
0.00814587 0.0276981 -0.0301345

0.00553506 -0.000379792 0.0134236
-0.000379792 0.011936 0.0266617
0.0134236 0.0266617 -0.0299845

0.00694834 -0.000371553 0.0194591
-0.000371553 0.0112355 0.025391
0.0194591 0.025391 -0.0304952

0.0111742 0.00116101 0.0253581
0.00116101 0.0111742 0.0253581
0.0253581 0.0253581 -0.0376425

0.0206068 0.000459296 -0.00678464
0.000459296 0.0206068 -0.00678464
-0.00678464 -0.00678464 -0.0457197

0.0165506 -0.00087367 -0.0122678
-0.00087367 0.0213426 -0.00751703
-0.0122678 -0.00751703 -0.0441489

0.0148235 -0.00110523 -0.0104135
-0.00110523 0.0222436 -0.00757791
-0.0104135 -0.00757791 -0.04294

0.0148912 -0.000746555 -0.00686201
-0.000746555 0.0228054 -0.00797025
-0.00686201 -0.00797025 -0.04356

0.0152458 -0.000264531 -0.00238268
-0.000264531 0.0230524 -0.00821755
-0.00238268 -0.00821755 -0.0441315

0.0152456 0.000264493 0.00238264
0.000264493 0.0230524 -0.00821755
0.00238264 -0.00821755 -0.0441315

0.0148914 0.000746366 0.00686197
0.000746366 0.0228054 -0.00797026
0.00686197 -0.00797026 -0.04356

0.0148235 0.00110499 0.0104134
0.00110499 0.0222436 -0.00757792
0.0104134 -0.00757792 -0.04294

0.0165507 0.000873575 0.0122679
0.000873575 0.0213426 -0.00751703
0.0122679 -0.00751703 -0.0441489

0.0206067 -0.000459119 0.00678479
-0.000459119 0.0206068 -0.00678464
0.00678479 -0.00678464 -0.0457197

0.0213426 -0.00087367 -0.00751703
-0.00087367 0.0165506 -0.0122678
-0.00751703 -0.0122678 -0.0441489

0.0171781 -0.00176608 -0.0124561
-0.00176608 0.0171781 -0.0124561
-0.0124561 -0.0124561 -0.0423542

0.0151953 -0.00189338 -0.0103536
-0.00189338 0.0179 -0.012815
-0.0103536 -0.012815 -0.0409882

0.014896 -0.00135282 -0.00674574
-0.00135282 0.0185345 -0.0134089
-0.00674574 -0.0134089 -0.0415044

0.0150158 -0.000484925 -0.00233065
-0.000484925 0.0188679 -0.0137963
-0.00233065 -0.0137963 -0.0420132

0.0150157 0.000485001 0.00233065
0.000485001 0.0188679 -0.0137963
0.00233065 -0.0137963 -0.0420132

0.014896 0.00135297 0.00674574
0.00135297 0.0185345 -0.0134089
0.00674574 -0.0134089 -0.0415044

0.0151954 0.00189353 0.0103536
0.00189353 0.0179 -0.012815
0.0103536 -0.012815 -0.0409882

0.0171782 0.00176614 0.0124562
0.00176614 0.0171781 -0.0124561
0.0124562 -0.0124561 -0.0423542

0.0213427 0.000873571 0.0075171
0.000873571 0.0165506 -0.0122678
0.0075171 -0.0122678 -0.0441489

0.0222436 -0.00110523 -0.00757791
-0.00110523 0.0148235 -0.0104135
-0.00757791 -0.0104135 -0.04294

0.0179 -0.00189338 -0.012815
-0.00189338 0.0151953 -0.0103536
-0.012815 -0.0103536 -0.0409882

0.0158539 -0.00189583 -0.0107319
-0.00189583 0.0158539 -0.0107319
-0.0107319 -0.0107319 -0.039539

0.0155112 -0.00135986 -0.00700401
-0.00135986 0.0164987 -0.011256
-0.00700401 -0.011256 -0.0401033

0.0155858 -0.000490822 -0.00242067
-0.000490822 0.0168843 -0.0116019
-0.00242067 -0.0116019 -0.0406581

0.0155859 0.000490859 0.00242063
0.000490859 0.0168843 -0.0116019
0.00242063 -0.0116019 -0.0406581

0.015511 0.00135986 0.00700393
0.00135986 0.0164987 -0.011256
0.00700393 -0.011256 -0.0401033

0.015854 0.0018958 0.0107319
0.0018958 0.0158539 -0.0107319
0.0107319 -0.0107319 -0.039539

0.0178999 0.00189338 0.0128151
0.00189338 0.0151953 -0.0103536
0.0128151 -0.0103536 -0.0409882

0.0222433 0.00110513 0.00757789
0.00110513 0.0148235 -0.0104135
0.00757789 -0.0104135 -0.04294

0.0228054 -0.000746555 -0.00797025
-0.000746555 0.0148912 -0.00686201
-0.00797025 -0.00686201 -0.04356

0.0185345 -0.00135282 -0.0134089
-0.00135282 0.014896 -0.00674574
-0.0134089 -0.00674574 -0.0415044

0.0164987 -0.00135986 -0.011256
-0.00135986 0.0155112 -0.00700401
-0.011256 -0.00700401 -0.0401033

0.016201 -0.000972401 -0.00736371
-0.000972401 0.016201 -0.00736371
-0.00736371 -0.00736371 -0.0408088

0.0163032 -0.000351335 -0.00254781
-0.000351335 0.0166306 -0.0075994
-0.00254781 -0.0075994 -0.0414646

0.0163033 0.000351297 0.00254785
0.000351297 0.0166306 -0.0075994
0.00254785 -0.0075994 -0.0414646

0.0162008 0.000972363 0.00736367
0.000972363 0.016201 -0.00736371
0.00736367 -0.00736371 -0.0408088

0.0164989 0.00135987 0.0112559
0.00135987 0.0155112 -0.00700401
0.0112559 -0.00700401 -0.0401033

0.0185345 0.00135285 0.013409
0.00135285 0.014896 -0.00674574
0.013409 -0.00674574 -0.0415044

0.022805 0.000746651 0.00797027
0.000746651 0.0148912 -0.00686201
0.00797027 -0.00686201 -0.04356

0.0230524 -0.000264531 -0.00821755
-0.000264531 0.0152458 -0.00238268
-0.00821755 -0.00238268 -0.0441315

0.0188679 -0.000484925 -0.0137963
-0.000484925 0.0150158 -0.00233065
-0.0137963 -0.00233065 -0.0420132

0.0168843 -0.000490822 -0.0116019
-0.000490822 0.0155858 -0.00242067
-0.0116019 -0.00242067 -0.0406581

0.0166306 -0.000351335 -0.0075994
-0.000351335 0.0163032 -0.00254781
-0.0075994 -0.00254781 -0.0414646

0.0167607 -0.000126815 -0.00263146
-0.000126815 0.0167607 -0.00263146
-0.00263146 -0.00263146 -0.0421887

0.0167606 0.000126777 0.00263157
0.000126777 0.0167607 -0.00263146
0.00263157 -0.00263146 -0.0421887

0.0166307 0.000351373 0.00759944
0.000351373 0.0163032 -0.00254781
0.00759944 -0.00254781 -0.0414646

0.0168845 0.000490878 0.0116018
0.000490878 0.0155858 -0.00242067
0.0116018 -0.00242067 -0.0406581

0.0188679 0.000484916 0.0137963
0.000484916 0.0150158 -0.00233065
0.0137963 -0.00233065 -0.0420132

0.0230522 0.000264562 0.00821756
0.000264562 0.0152458 -0.00238268
0.00821756 -0.00238268 -0.0441315

0.0230524 0.000264493 -0.00821755
0.000264493 0.0152456 0.00238264
-0.00821755 0.00238264 -0.0441315

0.0188679 0.000485001 -0.0137963
0.000485001 0.0150157 0.00233065
-0.0137963 0.00233065 -0.0420132

0.0168843 0.000490859 -0.0116019
0.000490859 0.0155859 0.00242063
-0.0116019 0.00242063 -0.0406581

0.0166306 0.000351297 -0.0075994
0.000351297 0.0163033 0.00254785
-0.0075994 0.00254785 -0.0414646

0.0167607 0.000126777 -0.00263146
0.000126777 0.0167606 0.00263157
-0.00263146 0.00263157 -0.0421887

0.0167606 -0.000126739 0.00263157
-0.000126739 0.0167606 0.00263157
0.00263157 0.00263157 -0.0421887

0.0166307 -0.000351335 0.00759944
-0.000351335 0.0163033 0.00254785
0.00759944 0.00254785 -0.0414646

0.0168845 -0.000490916 0.0116018
-0.000490916 0.0155859 0.00242063
0.0116018 0.00242063 -0.0406581

0.0188679 -0.000484991 0.0137963
-0.000484991 0.0150157 0.00233065
0.0137963 0.00233065 -0.0420132

0.0230522 -0.000264524 0.00821756
-0.000264524 0.0152456 0.00238264
0.00821756 0.00238264 -0.0441315

0.0228054 0.000746366 -0.00797026
0.000746366 0.0148914 0.00686197
-0.00797026 0.00686197 -0.04356

0.0185345 0.00135297 -0.0134089
0.00135297 0.014896 0.00674574
-0.0134089 0.00674574 -0.0415044

0.0164987 0.00135986 -0.011256
0.00135986 0.015511 0.00700393
-0.011256 0.00700393 -0.0401033

0.016201 0.000972363 -0.00736371
0.000972363 0.0162008 0.00736367
-0.00736371 0.00736367 -0.0408088

0.0163032 0.000351373 -0.00254781
0.000351373 0.0166307 0.00759944
-0.00254781 0.00759944 -0.0414646

0.0163033 -0.000351335 0.00254785
-0.000351335 0.0166307 0.00759944
0.00254785 0.00759944 -0.0414646

0.0162008 -0.000972325 0.00736368
-0.000972325 0.0162008 0.00736368
0.00736368 0.00736368 -0.0408088

0.0164989 -0.00135988 0.0112559
-0.00135988 0.015511 0.00700393
0.0112559 0.00700393 -0.0401033

0.0185345 -0.00135301 0.013409
-0.00135301 0.014896 0.00674574
0.013409 0.00674574 -0.0415044

0.022805 -0.000746462 0.00797027
-0.000746462 0.0148914 0.00686197
0.00797027 0.00686197 -0.04356

0.0222436 0.00110499 -0.00757792
0.00110499 0.0148235 0.0104134
-0.00757792 0.0104134 -0.04294

0.0179 0.00189353 -0.012815
0.00189353 0.0151954 0.0103536
-0.012815 0.0103536 -0.0409882

0.0158539 0.0018958 -0.0107319
0.0018958 0.015854 0.0107319
-0.0107319 0.0107319 -0.039539

0.0155112 0.00135987 -0.00700401
0.00135987 0.0164989 0.0112559
-0.00700401 0.0112559 -0.0401033

0.0155858 0.000490878 -0.00242067
0.000490878 0.0168845 0.0116018
-0.00242067 0.0116018 -0.0406581

0.0155859 -0.000490916 0.00242063
-0.000490916 0.0168845 0.0116018
0.00242063 0.0116018 -0.0406581

0.015511 -0.00135988 0.00700393
-0.00135988 0.0164989 0.0112559
0.00700393 0.0112559 -0.0401033

0.015854 -0.00189576 0.0107319
-0.00189576 0.015854 0.0107319
0.0107319 0.0107319 -0.039539

0.0178999 -0.00189353 0.0128151
-0.00189353 0.0151954 0.0103536
0.0128151 0.0103536 -0.0409882

0.0222433 -0.00110489 0.0075779
-0.00110489 0.0148235 0.0104134
0.0075779 0.0104134 -0.04294

0.0213426 0.000873575 -0.00751703
0.000873575 0.0165507 0.0122679
-0.00751703 0.0122679 -0.0441489

0.0171781 0.00176614 -0.0124561
0.00176614 0.0171782 0.0124562
-0.0124561 0.0124562 -0.0423542

0.0151953 0.00189338 -0.0103536
0.00189338 0.0178999 0.0128151
-0.0103536 0.0128151 -0.0409882

0.014896 0.00135285 -0.00674574
0.00135285 0.0185345 0.013409
-0.00674574 0.013409 -0.0415044

0.0150158 0.000484916 -0.00233065
0.000484916 0.0188679 0.0137963
-0.00233065 0.0137963 -0.0420132

0.0150157 -0.000484991 0.00233065
-0.000484991 0.0188679 0.0137963
0.00233065 0.0137963 -0.0420132

0.014896 -0.00135301 0.00674574
-0.00135301 0.0185345 0.013409
0.00674574 0.013409 -0.0415044

0.0151954 -0.00189353 0.0103536
-0.00189353 0.0178999 0.0128151
0.0103536 0.0128151 -0.0409882

0.0171782 -0.00176621 0.0124562
-0.00176621 0.0171782 0.0124562
0.0124562 0.0124562 -0.0423542

0.0213427 -0.000873477 0.0075171
-0.000873477 0.0165507 0.0122679
0.0075171 0.0122679 -0.0441489

0.0206068 -0.000459119 -0.00678464
-0.000459119 0.0206067 0.00678479
-0.00678464 0.00678479 -0.0457197

0.0165506 0.000873571 -0.0122678
0.000873571 0.0213427 0.0075171
-0.0122678 0.0075171 -0.0441489

0.0148235 0.00110513 -0.0104135
0.00110513 0.0222433 0.00757789
-0.0104135 0.00757789 -0.04294

0.0148912 0.000746651 -0.00686201
0.000746651 0.022805 0.00797027
-0.00686201 0.00797027 -0.04356

0.0152458 0.000264562 -0.00238268
0.000264562 0.0230522 0.00821756
-0.00238268 0.00821756 -0.0441315

0.0152456 -0.000264524 0.00238264
-0.000264524 0.0230522 0.00821756
0.00238264 0.00821756 -0.0441315

0.0148914 -0.000746462 0.00686197
-0.000746462 0.022805 0.00797027
0.00686197 0.00797027 -0.04356

0.0148235 -0.00110489 0.0104134
-0.00110489 0.0222433 0.0075779
0.0104134 0.0075779 -0.04294

0.0165507 -0.000873477 0.0122679
-0.000873477 0.0213427 0.0075171
0.0122679 0.0075171 -0.0441489

0.0206067 0.000458942 0.00678479
0.000458942 0.0206067 0.00678479
0.00678479 0.00678479 -0.0457197

0.0174783 -0.00151518 -0.00217604
-0.00151518 0.0174783 -0.00217604
-0.00217604 -0.00217604 -0.0388617

0.0193587 -0.00143342 -0.00700419
-0.00143342 0.0189644 -0.00234362
-0.00700419 -0.00234362 -0.0427203

0.0206078 -0.00167594 -0.00804261
-0.00167594 0.0194053 -0.00279167
-0.00804261 -0.00279167 -0.0447791

0.0221362 -0.00122153 -0.00593449
-0.00122153 0.0198071 -0.00309089
-0.00593449 -0.00309089 -0.0466675

0.0231873 -0.000439946 -0.00216207
-0.000439946 0.0199807 -0.00331658
-0.00216207 -0.00331658 -0.0478785

0.0231871 0.000439946 0.00216215
0.000439946 0.0199807 -0.00331658
0.00216215 -0.00331658 -0.0478785

0.0221364 0.00122142 0.0059346
0.00122142 0.0198071 -0.00309089
0.0059346 -0.00309089 -0.0466675

0.0206075 0.0016758 0.00804263
0.0016758 0.0194053 -0.00279168
0.00804263 -0.00279168 -0.0447791

0.0193588 0.0014334 0.00700404
0.0014334 0.0189644 -0.00234362
0.00700404 -0.00234362 -0.0427203

0.0174783 0.00151523 0.00217593
0.00151523 0.0174783 -0.00217604
0.00217593 -0.00217604 -0.0388617

0.0189644 -0.00143342 -0.00234362
-0.00143342 0.0193587 -0.00700419
-0.00234362 -0.00700419 -0.0427203

0.0205874 -0.00275338 -0.00706967
-0.00275338 0.0205874 -0.00706967
-0.00706967 -0.00706967 -0.0464222

0.0212314 -0.0029622 -0.00800282
-0.0029622 0.0214991 -0.00768665
-0.00800282 -0.00768665 -0.0484771

0.0222433 -0.00218275 -0.0058461
-0.00218275 0.0222664 -0.00840011
-0.0058461 -0.00840011 -0.0503928

0.0229768 -0.000794105 -0.00212111
-0.000794105 0.0227034 -0.0088685
-0.00212111 -0.0088685 -0.0516419

0.0229767 0.000794143 0.00212115
0.000794143 0.0227034 -0.0088685
0.00212115 -0.0088685 -0.0516419

0.0222433 0.00218282 0.00584618
0.00218282 0.0222664 -0.00840011
0.00584618 -0.00840011 -0.0503928

0.0212313 0.00296229 0.00800284
0.00296229 0.0214991 -0.00768665
0.00800284 -0.00768665 -0.0484771

0.0205875 0.00275343 0.00706955
0.00275343 0.0205874 -0.00706967
0.00706955 -0.00706967 -0.0464223

0.0189643 0.00143328 0.00234343
0.00143328 0.0193586 -0.0070042
0.00234343 -0.0070042 -0.0427203

0.0194053 -0.00167594 -0.00279167
-0.00167594 0.0206078 -0.00804261
-0.00279167 -0.00804261 -0.0447791

0.0214991 -0.0029622 -0.00768665
-0.0029622 0.0212314 -0.00800282
-0.00768665 -0.00800282 -0.0484771

0.0222117 -0.0030783 -0.00865294
-0.0030783 0.0222117 -0.00865294
-0.00865294 -0.00865294 -0.0508964

0.0232371 -0.0022447 -0.00630707
-0.0022447 0.0231825 -0.00942754
-0.00630707 -0.00942754 -0.0531327

0.0239586 -0.000816991 -0.00228592
-0.000816991 0.0237703 -0.00993126
-0.00228592 -0.00993126 -0.0545866

0.0239586 0.000816991 0.00228592
0.000816991 0.0237703 -0.00993126
0.00228592 -0.00993126 -0.0545866

0.0232371 0.0022447 0.00630715
0.0022447 0.0231825 -0.00942754
0.00630715 -0.00942754 -0.0531327

0.0222118 0.00307833 0.00865297
0.00307833 0.0222117 -0.00865294
0.00865297 -0.00865294 -0.0508963

0.0214991 0.00296228 0.00768658
0.00296228 0.0212314 -0.00800282
0.00768658 -0.00800282 -0.0484771

0.0194048 0.00167598 0.00279167
0.00167598 0.0206078 -0.00804261
0.00279167 -0.00804261 -0.0447791

0.0198071 -0.00122153 -0.00309089
-0.00122153 0.0221362 -0.00593449
-0.00309089 -0.00593449 -0.0466675

0.0222664 -0.00218275 -0.00840011
-0.00218275 0.0222433 -0.0058461
-0.00840011 -0.0058461 -0.0503928

0.0231825 -0.0022447 -0.00942754
-0.0022447 0.0232371 -0.00630707
-0.00942754 -0.00630707 -0.0531327

0.024364 -0.00163025 -0.00687719
-0.00163025 0.024364 -0.00687719
-0.00687719 -0.00687719 -0.0557507

0.0251721 -0.00059244 -0.00249378
-0.00059244 0.0250715 -0.00724619
-0.00249378 -0.00724619 -0.0574443

0.0251722 0.000592478 0.00249374
0.000592478 0.0250715 -0.00724619
0.00249374 -0.00724619 -0.0574443

0.0243639 0.00163029 0.0068773
0.00163029 0.024364 -0.00687719
0.0068773 -0.00687719 -0.0557507

0.0231826 0.0022447 0.00942773
0.0022447 0.0232371 -0.00630707
0.00942773 -0.00630707 -0.0531327

0.0222664 0.00218277 0.00840018
0.00218277 0.0222433 -0.0058461
0.00840018 -0.0058461 -0.0503928

0.0198068 0.00122164 0.00309101
0.00122164 0.0221362 -0.00593449
0.00309101 -0.00593449 -0.0466675

0.0199807 -0.000439946 -0.00331658
-0.000439946 0.0231873 -0.00216207
-0.00331658 -0.00216207 -0.0478785

0.0227034 -0.000794105 -0.0088685
-0.000794105 0.0229768 -0.00212111
-0.0088685 -0.00212111 -0.0516419

0.0237703 -0.000816991 -0.00993126
-0.000816991 0.0239586 -0.00228592
-0.00993126 -0.00228592 -0.0545866

0.0250715 -0.00059244 -0.00724619
-0.00059244 0.0251721 -0.00249378
-0.00724619 -0.00249378 -0.0574443

0.0259485 -0.000215209 -0.00262896
-0.000215209 0.0259485 -0.00262896
-0.00262896 -0.00262896 -0.0592928

0.0259487 0.000215209 0.00262896
0.000215209 0.0259485 -0.00262896
0.00262896 -0.00262896 -0.0592928

0.0250714 0.000592478 0.0072463
0.000592478 0.0251721 -0.00249378
0.0072463 -0.00249378 -0.0574443

0.0237703 0.000816991 0.00993137
0.000816991 0.0239586 -0.00228592
0.00993137 -0.00228592 -0.0545866

0.0227035 0.000794029 0.00886856
0.000794029 0.0229768 -0.00212111
0.00886856 -0.00212111 -0.0516419

0.0199805 0.000439865 0.00331661
0.000439865 0.0231873 -0.00216207
0.00331661 -0.00216207 -0.0478785

0.0199807 0.000439946 -0.00331658
0.000439946 0.0231871 0.00216215
-0.00331658 0.00216215 -0.0478785

0.0227034 0.000794143 -0.0088685
0.000794143 0.0229767 0.00212115
-0.0088685 0.00212115 -0.0516419

0.0237703 0.000816991 -0.00993126
0.000816991 0.0239586 0.00228592
-0.00993126 0.00228592 -0.0545866

0.0250715 0.000592478 -0.00724619
0.000592478 0.0251722 0.00249374
-0.00724619 0.00249374 -0.0574443

0.0259485 0.000215209 -0.00262896
0.000215209 0.0259487 0.00262896
-0.00262896 0.00262896 -0.0592928

0.0259487 -0.000215209 0.00262896
-0.000215209 0.0259487 0.00262896
0.00262896 0.00262896 -0.0592928

0.0250714 -0.000592516 0.0072463
-0.000592516 0.0251722 0.00249374
0.0072463 0.00249374 -0.0574443

0.0237703 -0.000816991 0.00993137
-0.000816991 0.0239586 0.00228592
0.00993137 0.00228592 -0.0545866

0.0227035 -0.000794067 0.00886856
-0.000794067 0.0229767 0.00212115
0.00886856 0.00212115 -0.0516419

0.0199805 -0.000439865 0.00331661
-0.000439865 0.0231871 0.00216215
0.00331661 0.00216215 -0.0478785

0.0198071 0.00122142 -0.00309089
0.00122142 0.0221364 0.0059346
-0.00309089 0.0059346 -0.0466675

0.0222664 0.00218282 -0.00840011
0.00218282 0.0222433 0.00584618
-0.00840011 0.00584618 -0.0503928

0.0231825 0.0022447 -0.00942754
0.0022447 0.0232371 0.00630715
-0.00942754 0.00630715 -0.0531327

0.024364 0.00163029 -0.00687719
0.00163029 0.0243639 0.0068773
-0.00687719 0.0068773 -0.0557507

0.0251721 0.000592478 -0.00249378
0.000592478 0.0250714 0.0072463
-0.00249378 0.0072463 -0.0574443

0.0251722 -0.000592516 0.00249374
-0.000592516 0.0250714 0.0072463
0.00249374 0.0072463 -0.0574443

0.0243639 -0.00163033 0.0068773
-0.00163033 0.0243639 0.0068773
0.0068773 0.0068773 -0.0557507

0.0231826 -0.0022447 0.00942773
-0.0022447 0.0232371 0.00630715
0.00942773 0.00630715 -0.0531327

0.0222664 -0.00218284 0.00840018
-0.00218284 0.0222433 0.00584618
0.00840018 0.00584618 -0.0503928

0.0198068 -0.00122153 0.00309102
-0.00122153 0.0221364 0.0059346
0.00309102 0.0059346 -0.0466675

0.0194053 0.0016758 -0.00279168
0.0016758 0.0206075 0.00804263
-0.00279168 0.00804263 -0.0447791

0.0214991 0.00296229 -0.00768665
0.00296229 0.0212313 0.00800284
-0.00768665 0.00800284 -0.0484771

0.0222117 0.00307833 -0.00865294
0.00307833 0.0222118 0.00865297
-0.00865294 0.00865297 -0.0508963

0.0232371 0.0022447 -0.00630707
0.0022447 0.0231826 0.00942773
-0.00630707 0.00942773 -0.0531327

0.0239586 0.000816991 -0.00228592
0.000816991 0.0237703 0.00993137
-0.00228592 0.00993137 -0.0545866

0.0239586 -0.000816991 0.00228592
-0.000816991 0.0237703 0.00993137
0.00228592 0.00993137 -0.0545866

0.0232371 -0.0022447 0.00630715
-0.0022447 0.0231826 0.00942773
0.00630715 0.00942773 -0.0531327

0.0222118 -0.00307837 0.00865297
-0.00307837 0.0222118 0.00865297
0.00865297 0.00865297 -0.0508963

0.0214991 -0.00296238 0.00768658
-0.00296238 0.0212313 0.00800283
0.00768658 0.00800283 -0.0484771

0.0194048 -0.00167585 0.00279167
-0.00167585 0.0206075 0.00804262
0.00279167 0.00804262 -0.0447791

0.0189644 0.0014334 -0.00234362
0.0014334 0.0193588 0.00700404
-0.00234362 0.00700404 -0.0427203

0.0205874 0.00275343 -0.00706967
0.00275343 0.0205875 0.00706955
-0.00706967 0.00706955 -0.0464223

0.0212314 0.00296228 -0.00800282
0.00296228 0.0214991 0.00768658
-0.00800282 0.00768658 -0.0484771

0.0222433 0.00218277 -0.0058461
0.00218277 0.0222664 0.00840018
-0.0058461 0.00840018 -0.0503928

0.0229768 0.000794029 -0.00212111
0.000794029 0.0227035 0.00886856
-0.00212111 0.00886856 -0.0516419

0.0229767 -0.000794067 0.00212115
-0.000794067 0.0227035 0.00886856
0.00212115 0.00886856 -0.0516419

0.0222433 -0.00218284 0.00584618
-0.00218284 0.0222664 0.00840018
0.00584618 0.00840018 -0.0503928

0.0212313 -0.00296238 0.00800283
-0.00296238 0.0214991 0.00768658
0.00800283 0.00768658 -0.0484771

0.0205875 -0.00275347 0.00706955
-0.00275347 0.0205875 0.00706955
0.00706955 0.00706955 -0.0464223

0.0189643 -0.00143326 0.00234343
-0.00143326 0.0193588 0.00700405
0.00234343 0.00700405 -0.0427203

0.0174783 0.00151523 -0.00217604
0.00151523 0.0174783 0.00217593
-0.00217604 0.00217593 -0.0388617

0.0193586 0.00143328 -0.0070042
0.00143328 0.0189643 0.00234343
-0.0070042 0.00234343 -0.0427203

0.0206078 0.00167598 -0.00804261
0.00167598 0.0194048 0.00279167
-0.00804261 0.00279167 -0.0447791

0.0221362 0.00122164 -0.00593449
0.00122164 0.0198068 0.00309101
-0.00593449 0.00309101 -0.0466675

0.0231873 0.000439865 -0.00216207
0.000439865 0.0199805 0.00331661
-0.00216207 0.00331661 -0.0478785

0.0231871 -0.000439865 0.00216215
-0.000439865 0.0199805 0.00331661
0.00216215 0.00331661 -0.0478785

0.0221364 -0.00122153 0.0059346
-0.00122153 0.0198068 0.00309102
0.0059346 0.00309102 -0.0466675

0.0206075 -0.00167585 0.00804262
-0.00167585 0.0194048 0.00279167
0.00804262 0.00279167 -0.0447791

0.0193588 -0.00143326 0.00700405
-0.00143326 0.0189643 0.00234343
0.00700405 0.00234343 -0.0427203

0.0174783 -0.00151528 0.00217593
-0.00151528 0.0174783 0.00217593
0.00217593 0.00217593 -0.0388617

0.0150943 -0.00150441 -0.00182037
-0.00150441 0.0150943 -0.00182037
-0.00182037 -0.00182037 -0.0336887

0.0192212 -0.00228317 -0.00585225
-0.00228317 0.0167253 -0.00187593
-0.00585225 -0.00187593 -0.0396108

0.0236637 -0.00244825 -0.00742343
-0.00244825 0.017177 -0.002538
-0.00742343 -0.002538 -0.0446524

0.027305 -0.00182574 -0.00586997
-0.00182574 0.0173323 -0.00326054
-0.00586997 -0.00326054 -0.0484754

0.0293804 -0.000663809 -0.00219422
-0.000663809 0.017378 -0.00368398
-0.00219422 -0.00368398 -0.0505727

0.0293803 0.000663847 0.00219418
0.000663847 0.017378 -0.00368398
0.00219418 -0.00368398 -0.0505727

0.0273052 0.00182567 0.0058699
0.00182567 0.0173323 -0.00326054
0.0058699 -0.00326054 -0.0484754

0.0236635 0.00244819 0.00742345
0.00244819 0.017177 -0.002538
0.00742345 -0.002538 -0.0446524

0.0192211 0.00228321 0.00585235
0.00228321 0.0167253 -0.00187593
0.00585235 -0.00187593 -0.0396108

0.0150943 0.00150436 0.00182028
0.00150436 0.0150943 -0.00182037
0.00182028 -0.00182037 -0.0336887

0.0167253 -0.00228317 -0.00187593
-0.00228317 0.0192212 -0.00585225
-0.00187593 -0.00585225 -0.0396108

0.0207004 -0.00431342 -0.00604817
-0.00431342 0.0207004 -0.00604817
-0.00604817 -0.00604817 -0.0455973

0.0245459 -0.00459235 -0.00759031
-0.00459235 0.0217822 -0.0073146
-0.00759031 -0.0073146 -0.0509247

0.0275897 -0.00339493 -0.00595518
-0.00339493 0.0226347 -0.00870994
-0.00595518 -0.00870994 -0.055069

0.0292947 -0.00124062 -0.00221755
-0.00124062 0.0231255 -0.00956376
-0.00221755 -0.00956376 -0.0573585

0.0292947 0.00124062 0.00221755
0.00124062 0.0231255 -0.00956376
0.00221755 -0.00956376 -0.0573585

0.0275895 0.00339493 0.0059551
0.00339493 0.0226347 -0.00870994
0.0059551 -0.00870994 -0.055069

0.024546 0.00459231 0.00759027
0.00459231 0.0217822 -0.0073146
0.00759027 -0.0073146 -0.0509247

0.0207004 0.00431342 0.00604824
0.00431342 0.0207004 -0.00604817
0.00604824 -0.00604817 -0.0455973

0.0167252 0.00228324 0.00187601
0.00228324 0.0192212 -0.00585225
0.00187601 -0.00585225 -0.0396108

0.017177 -0.00244825 -0.002538
-0.00244825 0.0236637 -0.00742343
-0.002538 -0.00742343 -0.0446524

0.0217822 -0.00459235 -0.0073146
-0.00459235 0.0245459 -0.00759031
-0.0073146 -0.00759031 -0.0509247

0.0259517 -0.00483581 -0.00892838
-0.00483581 0.0259517 -0.00892838
-0.00892838 -0.00892838 -0.0571041

0.0291877 -0.00354946 -0.00693157
-0.00354946 0.027328 -0.0104366
-0.00693157 -0.0104366 -0.0621218

0.0309768 -0.00129562 -0.00257229
-0.00129562 0.0281631 -0.0113693
-0.00257229 -0.0113693 -0.0649216

0.0309768 0.00129562 0.00257229
0.00129562 0.0281631 -0.0113693
0.00257229 -0.0113693 -0.0649216

0.0291877 0.00354954 0.0069315
0.00354954 0.027328 -0.0104366
0.0069315 -0.0104366 -0.0621218

0.0259516 0.00483591 0.00892825
0.00483591 0.0259517 -0.00892838
0.00892825 -0.00892838 -0.0571041

0.0217824 0.00459245 0.00731459
0.00459245 0.0245459 -0.00759031
0.00731459 -0.00759031 -0.0509247

0.0171767 0.0024483 0.00253809
0.0024483 0.0236637 -0.00742343
0.00253809 -0.00742343 -0.0446524

0.0173323 -0.00182574 -0.00326054
-0.00182574 0.027305 -0.00586997
-0.00326054 -0.00586997 -0.0484754

0.0226347 -0.00339493 -0.00870994
-0.00339493 0.0275897 -0.00595518
-0.00870994 -0.00595518 -0.055069

0.027328 -0.00354946 -0.0104366
-0.00354946 0.0291877 -0.00693157
-0.0104366 -0.00693157 -0.0621218

0.0309596 -0.00259659 -0.00804516
-0.00259659 0.0309596 -0.00804516
-0.00804516 -0.00804516 -0.0680363

0.0329634 -0.000946642 -0.00298108
-0.000946642 0.032066 -0.00874008
-0.00298108 -0.00874008 -0.071374

0.0329634 0.000946642 0.00298108
0.000946642 0.032066 -0.00874008
0.00298108 -0.00874008 -0.071374

0.0309597 0.00259659 0.00804508
0.00259659 0.0309596 -0.00804516
0.00804508 -0.00804516 -0.0680363

0.0273279 0.00354952 0.0104365
0.00354952 0.0291877 -0.00693157
0.0104365 -0.00693157 -0.0621218

0.0226348 0.00339493 0.00870979
0.00339493 0.0275897 -0.00595518
0.00870979 -0.00595518 -0.055069

0.017332 0.00182574 0.00326041
0.00182574 0.027305 -0.00586997
0.00326041 -0.00586997 -0.0484754

0.017378 -0.000663809 -0.00368398
-0.000663809 0.0293804 -0.00219422
-0.00368398 -0.00219422 -0.0505727

0.0231255 -0.00124062 -0.00956376
-0.00124062 0.0292947 -0.00221755
-0.00956376 -0.00221755 -0.0573585

0.0281631 -0.00129562 -0.0113693
-0.00129562 0.0309768 -0.00257229
-0.0113693 -0.00257229 -0.0649216

0.032066 -0.000946642 -0.00874008
-0.000946642 0.0329634 -0.00298108
-0.00874008 -0.00298108 -0.071374

0.0342215 -0.000345031 -0.00323732
-0.000345031 0.0342215 -0.00323732
-0.00323732 -0.00323732 -0.0750408

0.0342215 0.000345031 0.00323724
0.000345031 0.0342215 -0.00323732
0.00323724 -0.00323732 -0.0750408

0.0320661 0.000946604 0.00873989
0.000946604 0.0329634 -0.00298108
0.00873989 -0.00298108 -0.071374

0.028163 0.0012955 0.0113692
0.0012955 0.0309768 -0.00257229
0.0113692 -0.00257229 -0.0649216

0.0231257 0.00124059 0.00956366
0.00124059 0.0292947 -0.00221755
0.00956366 -0.00221755 -0.0573585

0.0173777 0.000663744 0.00368386
0.000663744 0.0293804 -0.00219422
0.00368386 -0.00219422 -0.0505727

0.017378 0.000663847 -0.00368398
0.000663847 0.0293803 0.00219418
-0.00368398 0.00219418 -0.0505727

0.0231255 0.00124062 -0.00956376
0.00124062 0.0292947 0.00221755
-0.00956376 0.00221755 -0.0573585

0.0281631 0.00129562 -0.0113693
0.00129562 0.0309768 0.00257229
-0.0113693 0.00257229 -0.0649216

0.032066 0.000946642 -0.00874008
0.000946642 0.0329634 0.00298108
-0.00874008 0.00298108 -0.071374

0.0342215 0.000345031 -0.00323732
0.000345031 0.0342215 0.00323724
-0.00323732 0.00323724 -0.0750408

0.0342215 -0.000345031 0.00323724
-0.000345031 0.0342215 0.00323724
0.00323724 0.00323724 -0.0750408

0.0320661 -0.000946604 0.00873989
-0.000946604 0.0329634 0.00298108
0.00873989 0.00298108 -0.071374

0.028163 -0.0012955 0.0113692
-0.0012955 0.0309768 0.00257229
0.0113692 0.00257229 -0.0649216

0.0231257 -0.00124059 0.00956366
-0.00124059 0.0292947 0.00221755
0.00956366 0.00221755 -0.0573585

0.0173777 -0.000663782 0.00368386
-0.000663782 0.0293803 0.00219418
0.00368386 0.00219418 -0.0505727

0.0173323 0.00182567 -0.00326054
0.00182567 0.0273052 0.0058699
-0.00326054 0.0058699 -0.0484754

0.0226347 0.00339493 -0.00870994
0.00339493 0.0275895 0.0059551
-0.00870994 0.0059551 -0.055069

0.027328 0.00354954 -0.0104366
0.00354954 0.0291877 0.0069315
-0.0104366 0.0069315 -0.0621218

0.0309596 0.00259659 -0.00804516
0.00259659 0.0309597 0.00804508
-0.00804516 0.00804508 -0.0680363

0.0329634 0.000946604 -0.00298108
0.000946604 0.0320661 0.00873989
-0.00298108 0.00873989 -0.071374

0.0329634 -0.000946604 0.00298108
-0.000946604 0.0320661 0.00873989
0.00298108 0.00873989 -0.071374

0.0309597 -0.00259659 0.00804508
-0.00259659 0.0309597 0.00804508
0.00804508 0.00804508 -0.0680363

0.0273279 -0.00354959 0.0104365
-0.00354959 0.0291877 0.0069315
0.0104365 0.0069315 -0.0621218

0.0226348 -0.00339493 0.00870979
-0.00339493 0.0275895 0.00595511
0.00870979 0.00595511 -0.055069

0.017332 -0.00182567 0.00326041
-0.00182567 0.0273052 0.0058699
0.00326041 0.0058699 -0.0484754

0.017177 0.00244819 -0.002538
0.00244819 0.0236635 0.00742345
-0.002538 0.00742345 -0.0446524

0.0217822 0.00459231 -0.0073146
0.00459231 0.024546 0.00759027
-0.0073146 0.00759027 -0.0509247

0.0259517 0.00483591 -0.00892838
0.00483591 0.0259516 0.00892825
-0.00892838 0.00892825 -0.0571041

0.0291877 0.00354952 -0.00693157
0.00354952 0.0273279 0.0104365
-0.00693157 0.0104365 -0.0621218

0.0309768 0.0012955 -0.00257229
0.0012955 0.028163 0.0113692
-0.00257229 0.0113692 -0.0649216

0.0309768 -0.0012955 0.00257229
-0.0012955 0.028163 0.0113692
0.00257229 0.0113692 -0.0649216

0.0291877 -0.00354959 0.0069315
-0.00354959 0.0273279 0.0104365
0.0069315 0.0104365 -0.0621218

0.0259516 -0.004836 0.00892825
-0.004836 0.0259516 0.00892825
0.00892825 0.00892825 -0.0571041

0.0217824 -0.00459242 0.00731459
-0.00459242 0.024546 0.00759027
0.00731459 0.00759027 -0.0509247

0.0171767 -0.00244825 0.00253809
-0.00244825 0.0236635 0.00742345
0.00253809 0.00742345 -0.0446524

0.0167253 0.00228321 -0.00187593
0.00228321 0.0192211 0.00585235
-0.00187593 0.00585235 -0.0396108

0.0207004 0.00431342 -0.00604817
0.00431342 0.0207004 0.00604824
-0.00604817 0.00604824 -0.0455973

0.0245459 0.00459245 -0.00759031
0.00459245 0.0217824 0.00731459
-0.00759031 0.00731459 -0.0509247

0.0275897 0.00339493 -0.00595518
0.00339493 0.0226348 0.00870979
-0.00595518 0.00870979 -0.055069

0.0292947 0.00124059 -0.00221755
0.00124059 0.0231257 0.00956366
-0.00221755 0.00956366 -0.0573585

0.0292947 -0.00124059 0.00221755
-0.00124059 0.0231257 0.00956366
0.00221755 0.00956366 -0.0573585

0.0275895 -0.00339493 0.00595511
-0.00339493 0.0226348 0.00870979
0.00595511 0.00870979 -0.055069

0.024546 -0.00459242 0.00759027
-0.00459242 0.0217824 0.00731459
0.00759027 0.00731459 -0.0509247

0.0207004 -0.00431342 0.00604824
-0.00431342 0.0207004 0.00604824
0.00604824 0.00604824 -0.0455973

0.0167252 -0.00228328 0.00187601
-0.00228328 0.0192211 0.00585234
0.00187601 0.00585234 -0.0396108

0.0150943 0.00150436 -0.00182037
0.00150436 0.0150943 0.00182028
-0.00182037 0.00182028 -0.0336887

0.0192212 0.00228324 -0.00585225
0.00228324 0.0167252 0.00187601
-0.00585225 0.00187601 -0.0396108

0.0236637 0.0024483 -0.00742343
0.0024483 0.0171767 0.00253809
-0.00742343 0.00253809 -0.0446524

0.027305 0.00182574 -0.00586997
0.00182574 0.017332 0.00326041
-0.00586997 0.00326041 -0.0484754

0.0293804 0.000663744 -0.00219422
0.000663744 0.0173777 0.00368386
-0.00219422 0.00368386 -0.0505727

0.0293803 -0.000663782 0.00219418
-0.000663782 0.0173777 0.00368386
0.00219418 0.00368386 -0.0505727

0.0273052 -0.00182567 0.0058699
-0.00182567 0.017332 0.00326041
0.0058699 0.00326041 -0.0484754

0.0236635 -0.00244825 0.00742345
-0.00244825 0.0171767 0.00253809
0.00742345 0.00253809 -0.0446524

0.0192211 -0.00228328 0.00585234
-0.00228328 0.0167252 0.00187601
0.00585234 0.00187601 -0.0396108

0.0150943 -0.00150432 0.00182028
-0.00150432 0.0150943 0.00182028
0.00182028 0.00182028 -0.0336887

0.012483 -0.00164755 -0.0025861
-0.00164755 0.012483 -0.0025861
-0.0025861 -0.0025861 -0.027994

0.0181721 -0.00340548 -0.00689634
-0.00340548 0.0140967 -0.0030294
-0.00689634 -0.0030294 -0.0353223

0.0250935 -0.00389382 -0.00850973
-0.00389382 0.0142792 -0.00436449
-0.00850973 -0.00436449 -0.0424309

0.0308767 -0.0028533 -0.0066587
-0.0028533 0.0140759 -0.00580114
-0.0066587 -0.00580114 -0.0479451

0.0340549 -0.00103118 -0.00247964
-0.00103118 0.0138671 -0.00664156
-0.00247964 -0.00664156 -0.0508693

0.0340549 0.00103118 0.00247972
0.00103118 0.0138671 -0.00664156
0.00247972 -0.00664156 -0.0508693

0.0308766 0.00285318 0.00665874
0.00285318 0.0140759 -0.00580114
0.00665874 -0.00580114 -0.0479451

0.0250936 0.00389369 0.00850971
0.00389369 0.0142792 -0.00436449
0.00850971 -0.00436449 -0.0424309

0.0181719 0.00340543 0.00689636
0.00340543 0.0140967 -0.0030294
0.00689636 -0.0030294 -0.0353223

0.0124827 0.00164755 0.00258616
0.00164755 0.012483 -0.0025861
0.00258616 -0.0025861 -0.027994

0.0140967 -0.00340548 -0.0030294
-0.00340548 0.0181721 -0.00689634
-0.0030294 -0.00689634 -0.0353223

0.0198585 -0.00668908 -0.00771927
-0.00668908 0.0198585 -0.00771927
-0.00771927 -0.00771927 -0.0431453

0.0263104 -0.0072948 -0.009372
-0.0072948 0.021084 -0.0102861
-0.009372 -0.0102861 -0.0512357

0.0315339 -0.0053773 -0.00723827
-0.0053773 0.022069 -0.0129902
-0.00723827 -0.0129902 -0.0577272

0.0343349 -0.00195955 -0.00268627
-0.00195955 0.0226252 -0.0145952
-0.00268627 -0.0145952 -0.0612168

0.0343349 0.00195955 0.00268627
0.00195955 0.0226252 -0.0145952
0.00268627 -0.0145952 -0.0612168

0.0315337 0.00537734 0.00723831
0.00537734 0.022069 -0.0129902
0.00723831 -0.0129902 -0.0577272

0.0263105 0.00729478 0.00937198
0.00729478 0.021084 -0.0102861
0.00937198 -0.0102861 -0.0512357

0.0198586 0.00668906 0.00771921
0.00668906 0.0198585 -0.00771927
0.00771921 -0.00771927 -0.0431453

0.0140966 0.00340558 0.00302937
0.00340558 0.0181721 -0.00689634
0.00302937 -0.00689634 -0.0353223

0.0142792 -0.00389382 -0.00436449
-0.00389382 0.0250935 -0.00850973
-0.00436449 -0.00850973 -0.0424309

0.021084 -0.0072948 -0.0102861
-0.0072948 0.0263104 -0.009372
-0.0102861 -0.009372 -0.0512357

0.0283243 -0.00776833 -0.0121762
-0.00776833 0.0283243 -0.0121762
-0.0121762 -0.0121762 -0.0612263

0.034179 -0.00568966 -0.00927236
-0.00568966 0.0303303 -0.0151212
-0.00927236 -0.0151212 -0.0696054

0.0372807 -0.00207371 -0.00342903
-0.00207371 0.0315492 -0.016881
-0.00342903 -0.016881 -0.0741922

0.0372806 0.00207367 0.00342899
0.00207367 0.0315492 -0.016881
0.00342899 -0.016881 -0.0741922

0.0341791 0.00568966 0.00927236
0.00568966 0.0303303 -0.0151212
0.00927236 -0.0151212 -0.0696054

0.0283242 0.00776841 0.0121763
0.00776841 0.0283243 -0.0121762
0.0121763 -0.0121762 -0.0612263

0.0210842 0.00729485 0.0102861
0.00729485 0.0263104 -0.009372
0.0102861 -0.009372 -0.0512357

0.0142791 0.0038938 0.0043644
0.0038938 0.0250935 -0.00850973
0.0043644 -0.00850973 -0.0424309

0.0140759 -0.0028533 -0.00580114
-0.0028533 0.0308767 -0.0066587
-0.00580114 -0.0066587 -0.0479451

0.022069 -0.0053773 -0.0129902
-0.0053773 0.0315339 -0.00723827
-0.0129902 -0.00723827 -0.0577272

0.0303303 -0.00568966 -0.0151212
-0.00568966 0.034179 -0.00927236
-0.0151212 -0.00927236 -0.0696054

0.0370384 -0.00414931 -0.0114335
-0.00414931 0.0370384 -0.0114335
-0.0114335 -0.0114335 -0.0798499

0.0406004 -0.00150871 -0.00422166
-0.00150871 0.0387999 -0.0127297
-0.00422166 -0.0127297 -0.085528

0.0406004 0.00150878 0.00422166
0.00150878 0.0387999 -0.0127297
0.00422166 -0.0127297 -0.085528

0.0370384 0.00414939 0.0114335
0.00414939 0.0370384 -0.0114335
0.0114335 -0.0114335 -0.0798499

0.0303302 0.00568966 0.0151212
0.00568966 0.034179 -0.00927235
0.0151212 -0.00927235 -0.0696054

0.0220691 0.00537726 0.0129902
0.00537726 0.0315339 -0.00723827
0.0129902 -0.00723827 -0.0577272

0.0140759 0.00285332 0.00580121
0.00285332 0.0308767 -0.0066587
0.00580121 -0.0066587 -0.0479451

0.0138671 -0.00103118 -0.00664156
-0.00103118 0.0340549 -0.00247964
-0.00664156 -0.00247964 -0.0508693

0.0226252 -0.00195955 -0.0145952
-0.00195955 0.0343349 -0.00268627
-0.0145952 -0.00268627 -0.0612168

0.0315492 -0.00207371 -0.016881
-0.00207371 0.0372807 -0.00342903
-0.016881 -0.00342903 -0.0741922

0.0387999 -0.00150871 -0.0127297
-0.00150871 0.0406004 -0.00422166
-0.0127297 -0.00422166 -0.085528

0.0426548 -0.00054719 -0.00469647
-0.00054719 0.0426548 -0.00469647
-0.00469647 -0.00469647 -0.0918432

0.0426549 0.000547151 0.00469658
0.000547151 0.0426548 -0.00469647
0.00469658 -0.00469647 -0.0918432

0.0387998 0.00150867 0.0127299
0.00150867 0.0406004 -0.00422166
0.0127299 -0.00422166 -0.085528

0.0315491 0.00207369 0.016881
0.00207369 0.0372807 -0.00342903
0.016881 -0.00342903 -0.0741922

0.0226253 0.00195959 0.0145952
0.00195959 0.0343349 -0.00268627
0.0145952 -0.00268627 -0.0612168

0.0138671 0.00103125 0.00664177
0.00103125 0.0340549 -0.00247964
0.00664177 -0.00247964 -0.0508693

0.0138671 0.00103118 -0.00664156
0.00103118 0.0340549 0.00247972
-0.00664156 0.00247972 -0.0508693

0.0226252 0.00195955 -0.0145952
0.00195955 0.0343349 0.00268627
-0.0145952 0.00268627 -0.0612168

0.0315492 0.00207367 -0.016881
0.00207367 0.0372806 0.00342899
-0.016881 0.00342899 -0.0741922

0.0387999 0.00150878 -0.0127297
0.00150878 0.0406004 0.00422166
-0.0127297 0.00422166 -0.085528

0.0426548 0.000547151 -0.00469647
0.000547151 0.0426549 0.00469658
-0.00469647 0.00469658 -0.0918432

0.0426549 -0.000547112 0.00469658
-0.000547112 0.0426549 0.00469658
0.00469658 0.00469658 -0.0918432

0.0387998 -0.00150875 0.0127299
-0.00150875 0.0406004 0.00422166
0.0127299 0.00422166 -0.085528

0.0315491 -0.00207365 0.016881
-0.00207365 0.0372806 0.00342899
0.016881 0.00342899 -0.0741922

0.0226253 -0.00195959 0.0145952
-0.00195959 0.0343349 0.00268626
0.0145952 0.00268626 -0.0612168

0.0138671 -0.00103125 0.00664177
-0.00103125 0.0340549 0.00247971
0.00664177 0.00247971 -0.0508693

0.0140759 0.00285318 -0.00580114
0.00285318 0.0308766 0.00665874
-0.00580114 0.00665874 -0.0479451

0.022069 0.00537734 -0.0129902
0.00537734 0.0315337 0.00723831
-0.0129902 0.00723831 -0.0577272

0.0303303 0.00568966 -0.0151212
0.00568966 0.0341791 0.00927236
-0.0151212 0.00927236 -0.0696054

0.0370384 0.00414939 -0.0114335
0.00414939 0.0370384 0.0114335
-0.0114335 0.0114335 -0.0798499

0.0406004 0.00150867 -0.00422166
0.00150867 0.0387998 0.0127299
-0.00422166 0.0127299 -0.085528

0.0406004 -0.00150875 0.00422166
-0.00150875 0.0387998 0.0127299
0.00422166 0.0127299 -0.085528

0.0370384 -0.00414947 0.0114335
-0.00414947 0.0370384 0.0114335
0.0114335 0.0114335 -0.0798499

0.0303302 -0.00568966 0.0151212
-0.00568966 0.0341791 0.00927236
0.0151212 0.00927236 -0.0696054

0.0220691 -0.0053773 0.0129902
-0.0053773 0.0315337 0.00723831
0.0129902 0.00723831 -0.0577272

0.0140759 -0.0028532 0.00580121
-0.0028532 0.0308766 0.00665874
0.00580121 0.00665874 -0.0479451

0.0142792 0.00389369 -0.00436449
0.00389369 0.0250936 0.00850971
-0.00436449 0.00850971 -0.0424309

0.021084 0.00729478 -0.0102861
0.00729478 0.0263105 0.00937198
-0.0102861 0.00937198 -0.0512357

0.0283243 0.00776841 -0.0121762
0.00776841 0.0283242 0.0121763
-0.0121762 0.0121763 -0.0612263

0.034179 0.00568966 -0.00927235
0.00568966 0.0303302 0.0151212
-0.00927235 0.0151212 -0.0696054

0.0372807 0.00207369 -0.00342903
0.00207369 0.0315491 0.016881
-0.00342903 0.016881 -0.0741922

0.0372806 -0.00207365 0.00342899
-0.00207365 0.0315491 0.016881
0.00342899 0.016881 -0.0741922

0.0341791 -0.00568966 0.00927236
-0.00568966 0.0303302 0.0151212
0.00927236 0.0151212 -0.0696054

0.0283242 -0.00776848 0.0121763
-0.00776848 0.0283242 0.0121763
0.0121763 0.0121763 -0.0612263

0.0210842 -0.00729483 0.0102861
-0.00729483 0.0263105 0.00937198
0.0102861 0.00937198 -0.0512357

0.0142791 -0.00389366 0.0043644
-0.00389366 0.0250936 0.00850971
0.0043644 0.00850971 -0.0424309

0.0140967 0.00340543 -0.0030294
0.00340543 0.0181719 0.00689636
-0.0030294 0.00689636 -0.0353223

0.0198585 0.00668906 -0.00771927
0.00668906 0.0198586 0.00771921
-0.00771927 0.00771921 -0.0431453

0.0263104 0.00729485 -0.009372
0.00729485 0.0210842 0.0102861
-0.009372 0.0102861 -0.0512357

0.0315339 0.00537726 -0.00723827
0.00537726 0.0220691 0.0129902
-0.00723827 0.0129902 -0.0577272

0.0343349 0.00195959 -0.00268627
0.00195959 0.0226253 0.0145952
-0.00268627 0.0145952 -0.0612168

0.0343349 -0.00195959 0.00268626
-0.00195959 0.0226253 0.0145952
0.00268626 0.0145952 -0.0612168

0.0315337 -0.0053773 0.00723831
-0.0053773 0.0220691 0.0129902
0.00723831 0.0129902 -0.0577272

0.0263105 -0.00729483 0.00937198
-0.00729483 0.0210842 0.0102861
0.00937198 0.0102861 -0.0512357

0.0198586 -0.00668905 0.00771921
-0.00668905 0.0198586 0.00771921
0.00771921 0.00771921 -0.0431453

0.0140966 -0.00340553 0.00302937
-0.00340553 0.0181719 0.00689636
0.00302937 0.00689636 -0.0353223

0.012483 0.00164755 -0.0025861
0.00164755 0.0124827 0.00258616
-0.0025861 0.00258616 -0.027994

0.0181721 0.00340558 -0.00689634
0.00340558 0.0140966 0.00302937
-0.00689634 0.00302937 -0.0353223

0.0250935 0.0038938 -0.00850973
0.0038938 0.0142791 0.0043644
-0.00850973 0.0043644 -0.0424309

0.0308767 0.00285332 -0.0066587
0.00285332 0.0140759 0.00580121
-0.0066587 0.00580121 -0.0479451

0.0340549 0.00103125 -0.00247964
0.00103125 0.0138671 0.00664177
-0.00247964 0.00664177 -0.0508693

0.0340549 -0.00103125 0.00247971
-0.00103125 0.0138671 0.00664177
0.00247971 0.00664177 -0.0508693

0.0308766 -0.0028532 0.00665874
-0.0028532 0.0140759 0.00580121
0.00665874 0.00580121 -0.0479451

0.0250936 -0.00389366 0.00850971
-0.00389366 0.0142791 0.0043644
0.00850971 0.0043644 -0.0424309

0.0181719 -0.00340553 0.00689636
-0.00340553 0.0140966 0.00302937
0.00689636 0.00302937 -0.0353223

0.0124827 -0.00164755 0.00258616
-0.00164755 0.0124827 0.00258616
0.00258616 0.00258616 -0.027994

0.0092849 -0.00230304 -0.00350793
-0.00230304 0.0092849 -0.00350793
-0.00350793 -0.00350793 -0.0208688

0.0163427 -0.00525681 -0.00844611
-0.00525681 0.0107361 -0.00466207
-0.00844611 -0.00466207 -0.0293715

0.0253559 -0.00625654 -0.0101933
-0.00625654 0.0101702 -0.00720502
-0.0101933 -0.00720502 -0.0376926

0.0329923 -0.00447951 -0.00771353
-0.00447951 0.00920677 -0.00976137
-0.00771353 -0.00976137 -0.0441692

0.0370999 -0.00158537 -0.00281419
-0.00158537 0.00853534 -0.0111666
-0.00281419 -0.0111666 -0.0474949

0.0370999 0.00158537 0.00281411
0.00158537 0.00853534 -0.0111666
0.00281411 -0.0111666 -0.0474949

0.0329923 0.00447952 0.00771353
0.00447952 0.00920677 -0.00976137
0.00771353 -0.00976137 -0.0441692

0.0253559 0.00625656 0.0101934
0.00625656 0.0101702 -0.00720502
0.0101934 -0.00720502 -0.0376926

0.0163425 0.00525686 0.00844608
0.00525686 0.0107361 -0.00466207
0.00844608 -0.00466207 -0.0293715

0.00928484 0.00230307 0.00350798
0.00230307 0.0092849 -0.00350793
0.00350798 -0.00350793 -0.0208688

0.0107361 -0.00525681 -0.00466207
-0.00525681 0.0163427 -0.00844611
-0.00466207 -0.00844611 -0.0293715

0.0182353 -0.0104593 -0.0105441
-0.0104593 0.0182353 -0.0105441
-0.0105441 -0.0105441 -0.039254

0.0270892 -0.0116205 -0.0125633
-0.0116205 0.0194661 -0.0153733
-0.0125633 -0.0153733 -0.0499266

0.034419 -0.00844366 -0.00937056
-0.00844366 0.0204903 -0.0202236
-0.00937056 -0.0202236 -0.0586956

0.038237 -0.00303436 -0.0034124
-0.00303436 0.0210985 -0.022946
-0.0034124 -0.022946 -0.0633088

0.038237 0.00303436 0.0034124
0.00303436 0.0210985 -0.022946
0.0034124 -0.022946 -0.0633088

0.034419 0.00844366 0.00937064
0.00844366 0.0204903 -0.0202236
0.00937064 -0.0202236 -0.0586956

0.0270892 0.0116205 0.0125635
0.0116205 0.0194661 -0.0153733
0.0125635 -0.0153733 -0.0499266

0.0182353 0.0104593 0.0105442
0.0104593 0.0182353 -0.0105441
0.0105442 -0.0105441 -0.039254

0.0107359 0.00525684 0.00466218
0.00525684 0.0163427 -0.00844611
0.00466218 -0.00844611 -0.0293715

0.0101702 -0.00625654 -0.00720502
-0.00625654 0.0253559 -0.0101933
-0.00720502 -0.0101933 -0.0376926

0.0194661 -0.0116205 -0.0153733
-0.0116205 0.0270892 -0.0125633
-0.0153733 -0.0125633 -0.0499266

0.0300377 -0.0125377 -0.0180593
-0.0125377 0.0300377 -0.0180593
-0.0180593 -0.0180593 -0.0645598

0.0388677 -0.00904683 -0.0133355
-0.00904683 0.0330224 -0.0235427
-0.0133355 -0.0235427 -0.0771802

0.0434101 -0.00325205 -0.00486254
-0.00325205 0.0348442 -0.0266276
-0.00486254 -0.0266276 -0.0839586

0.04341 0.00325201 0.00486258
0.00325201 0.0348442 -0.0266276
0.00486258 -0.0266276 -0.0839586

0.0388678 0.0090468 0.0133355
0.0090468 0.0330224 -0.0235427
0.0133355 -0.0235427 -0.0771802

0.0300376 0.0125377 0.0180593
0.0125377 0.0300377 -0.0180593
0.0180593 -0.0180593 -0.0645598

0.0194662 0.0116205 0.0153734
0.0116205 0.0270892 -0.0125633
0.0153734 -0.0125633 -0.0499266

0.01017 0.00625645 0.00720505
0.00625645 0.0253559 -0.0101933
0.00720505 -0.0101933 -0.0376926

0.00920677 -0.00447951 -0.00976137
-0.00447951 0.0329923 -0.00771353
-0.00976137 -0.00771353 -0.0441692

0.0204903 -0.00844366 -0.0202236
-0.00844366 0.034419 -0.00937056
-0.0202236 -0.00937056 -0.0586956

0.0330224 -0.00904683 -0.0235427
-0.00904683 0.0388677 -0.0133355
-0.0235427 -0.0133355 -0.0771802

0.0435534 -0.00645116 -0.0172784
-0.00645116 0.0435534 -0.0172784
-0.0172784 -0.0172784 -0.0934833

0.0489496 -0.00229934 -0.00629202
-0.00229934 0.0463681 -0.0194547
-0.00629202 -0.0194547 -0.102275

0.0489496 0.00229942 0.00629202
0.00229942 0.0463681 -0.0194547
0.00629202 -0.0194547 -0.102275

0.0435535 0.00645127 0.0172784
0.00645127 0.0435534 -0.0172784
0.0172784 -0.0172784 -0.0934833

0.0330223 0.00904689 0.0235427
0.00904689 0.0388677 -0.0133355
0.0235427 -0.0133355 -0.0771802

0.0204904 0.00844374 0.0202236
0.00844374 0.034419 -0.00937056
0.0202236 -0.00937056 -0.0586956

0.00920672 0.00447971 0.00976136
0.00447971 0.0329923 -0.00771353
0.00976136 -0.00771353 -0.0441692

0.00853534 -0.00158537 -0.0111666
-0.00158537 0.0370999 -0.00281419
-0.0111666 -0.00281419 -0.0474949

0.0210985 -0.00303436 -0.022946
-0.00303436 0.038237 -0.0034124
-0.022946 -0.0034124 -0.0633088

0.0348442 -0.00325205 -0.0266276
-0.00325205 0.0434101 -0.00486254
-0.0266276 -0.00486254 -0.0839586

0.0463681 -0.00229934 -0.0194547
-0.00229934 0.0489496 -0.00629202
-0.0194547 -0.00629202 -0.102275

0.0522133 -0.000813507 -0.00705865
-0.000813507 0.0522133 -0.00705865
-0.00705865 -0.00705865 -0.112094

0.0522134 0.000813507 0.00705857
0.000813507 0.0522133 -0.00705865
0.00705857 -0.00705865 -0.112094

0.0463682 0.00229938 0.0194547
0.00229938 0.0489496 -0.00629202
0.0194547 -0.00629202 -0.102275

0.0348439 0.00325205 0.0266277
0.00325205 0.0434101 -0.00486254
0.0266277 -0.00486254 -0.0839586

0.0210987 0.00303431 0.0229461
0.00303431 0.038237 -0.0034124
0.0229461 -0.0034124 -0.0633088

0.00853562 0.00158542 0.0111666
0.00158542 0.0370999 -0.00281419
0.0111666 -0.00281419 -0.0474949

0.00853534 0.00158537 -0.0111666
0.00158537 0.0370999 0.00281411
-0.0111666 0.00281411 -0.0474949

0.0210985 0.00303436 -0.022946
0.00303436 0.038237 0.0034124
-0.022946 0.0034124 -0.0633088

0.0348442 0.00325201 -0.0266276
0.00325201 0.04341 0.00486258
-0.0266276 0.00486258 -0.0839586

0.0463681 0.00229942 -0.0194547
0.00229942 0.0489496 0.00629202
-0.0194547 0.00629202 -0.102275

0.0522133 0.000813507 -0.00705865
0.000813507 0.0522134 0.00705857
-0.00705865 0.00705857 -0.112094

0.0522134 -0.000813507 0.00705857
-0.000813507 0.0522134 0.00705857
0.00705857 0.00705857 -0.112094

0.0463682 -0.00229946 0.0194547
-0.00229946 0.0489496 0.00629202
0.0194547 0.00629202 -0.102275

0.0348439 -0.00325201 0.0266277
-0.00325201 0.04341 0.00486258
0.0266277 0.00486258 -0.0839586

0.0210987 -0.00303431 0.0229461
-0.00303431 0.038237 0.0034124
0.0229461 0.0034124 -0.0633088

0.00853562 -0.00158542 0.0111666
-0.00158542 0.0370999 0.00281411
0.0111666 0.00281411 -0.0474949

0.00920677 0.00447952 -0.00976137
0.00447952 0.0329923 0.00771353
-0.00976137 0.00771353 -0.0441692

0.0204903 0.00844366 -0.0202236
0.00844366 0.034419 0.00937064
-0.0202236 0.00937064 -0.0586956

0.0330224 0.0090468 -0.0235427
0.0090468 0.0388678 0.0133355
-0.0235427 0.0133355 -0.0771802

0.0435534 0.00645127 -0.0172784
0.00645127 0.0435535 0.0172784
-0.0172784 0.0172784 -0.0934833

0.0489496 0.00229938 -0.00629202
0.00229938 0.0463682 0.0194547
-0.00629202 0.0194547 -0.102275

0.0489496 -0.00229946 0.00629202
-0.00229946 0.0463682 0.0194547
0.00629202 0.0194547 -0.102275

0.0435535 -0.00645139 0.0172784
-0.00645139 0.0435535 0.0172784
0.0172784 0.0172784 -0.0934833

0.0330223 -0.00904685 0.0235427
-0.00904685 0.0388678 0.0133355
0.0235427 0.0133355 -0.0771802

0.0204904 -0.00844374 0.0202236
-0.00844374 0.034419 0.00937064
0.0202236 0.00937064 -0.0586956

0.00920672 -0.00447971 0.00976136
-0.00447971 0.0329923 0.00771353
0.00976136 0.00771353 -0.0441692

0.0101702 0.00625656 -0.00720502
0.00625656 0.0253559 0.0101934
-0.00720502 0.0101934 -0.0376926

0.0194661 0.0116205 -0.0153733
0.0116205 0.0270892 0.0125635
-0.0153733 0.0125635 -0.0499266

0.0300377 0.0125377 -0.0180593
0.0125377 0.0300376 0.0180593
-0.0180593 0.0180593 -0.0645598

0.0388677 0.00904689 -0.0133355
0.00904689 0.0330223 0.0235427
-0.0133355 0.0235427 -0.0771802

0.0434101 0.00325205 -0.00486254
0.00325205 0.0348439 0.0266277
-0.00486254 0.0266277 -0.0839586

0.04341 -0.00325201 0.00486258
-0.00325201 0.0348439 0.0266277
0.00486258 0.0266277 -0.0839586

0.0388678 -0.00904685 0.0133355
-0.00904685 0.0330223 0.0235427
0.0133355 0.0235427 -0.0771802

0.0300376 -0.0125377 0.0180593
-0.0125377 0.0300376 0.0180593
0.0180593 0.0180593 -0.0645598

0.0194662 -0.0116204 0.0153734
-0.0116204 0.0270892 0.0125635
0.0153734 0.0125635 -0.0499266

0.01017 -0.00625647 0.00720505
-0.00625647 0.0253559 0.0101934
0.00720505 0.0101934 -0.0376926

0.0107361 0.00525686 -0.00466207
0.00525686 0.0163425 0.00844608
-0.00466207 0.00844608 -0.0293715

0.0182353 0.0104593 -0.0105441
0.0104593 0.0182353 0.0105442
-0.0105441 0.0105442 -0.039254

0.0270892 0.0116205 -0.0125633
0.0116205 0.0194662 0.0153734
-0.0125633 0.0153734 -0.0499266

0.034419 0.00844374 -0.00937056
0.00844374 0.0204904 0.0202236
-0.00937056 0.0202236 -0.0586956

0.038237 0.00303431 -0.0034124
0.00303431 0.0210987 0.0229461
-0.0034124 0.0229461 -0.0633088

0.038237 -0.00303431 0.0034124
-0.00303431 0.0210987 0.0229461
0.0034124 0.0229461 -0.0633088

0.034419 -0.00844374 0.00937064
-0.00844374 0.0204904 0.0202236
0.00937064 0.0202236 -0.0586956

0.0270892 -0.0116204 0.0125635
-0.0116204 0.0194662 0.0153734
0.0125635 0.0153734 -0.0499266

0.0182353 -0.0104593 0.0105442
-0.0104593 0.0182353 0.0105442
0.0105442 0.0105442 -0.039254

0.0107359 -0.00525689 0.00466218
-0.00525689 0.0163425 0.00844608
0.00466218 0.00844608 -0.0293715

0.0092849 0.00230307 -0.00350793
0.00230307 0.00928484 0.00350798
-0.00350793 0.00350798 -0.0208688

0.0163427 0.00525684 -0.00844611
0.00525684 0.0107359 0.00466218
-0.00844611 0.00466218 -0.0293715

0.0253559 0.00625645 -0.0101933
0.00625645 0.01017 0.00720505
-0.0101933 0.00720505 -0.0376926

0.0329923 0.00447971 -0.00771353
0.00447971 0.00920672 0.00976136
-0.00771353 0.00976136 -0.0441692

0.0370999 0.00158542 -0.00281419
0.00158542 0.00853562 0.0111666
-0.00281419 0.0111666 -0.0474949

0.0370999 -0.00158542 0.00281411
-0.00158542 0.00853562 0.0111666
0.00281411 0.0111666 -0.0474949

0.0329923 -0.00447971 0.00771353
-0.00447971 0.00920672 0.00976136
0.00771353 0.00976136 -0.0441692

0.0253559 -0.00625647 0.0101934
-0.00625647 0.01017 0.00720505
0.0101934 0.00720505 -0.0376926

0.0163425 -0.00525689 0.00844608
-0.00525689 0.0107359 0.00466218
0.00844608 0.00466218 -0.0293715

0.00928484 -0.00230311 0.00350798
-0.00230311 0.00928484 0.00350798
0.00350798 0.00350798 -0.0208688

0.00565517 -0.00343044 -0.00379417
-0.00343044 0.00565517 -0.00379417
-0.00379417 -0.00379417 -0.0126625

0.0136926 -0.00781228 -0.00890988
-0.00781228 0.00656084 -0.00583503
-0.00890988 -0.00583503 -0.0215905

0.0241565 -0.00958765 -0.0110123
-0.00958765 0.0044194 -0.0099405
-0.0110123 -0.0099405 -0.0296643

0.0330656 -0.0064709 -0.00804531
-0.0064709 0.00198686 -0.0138274
-0.00804531 -0.0138274 -0.0358078

0.0377006 -0.00221545 -0.00290059
-0.00221545 0.000639458 -0.0157029
-0.00290059 -0.0157029 -0.0388739

0.0377006 0.00221541 0.00290062
0.00221541 0.000639458 -0.0157029
0.00290062 -0.0157029 -0.0388739

0.0330657 0.00647087 0.00804527
0.00647087 0.00198686 -0.0138274
0.00804527 -0.0138274 -0.0358078

0.0241564 0.00958778 0.0110122
0.00958778 0.0044194 -0.00994051
0.0110122 -0.00994051 -0.0296643

0.0136926 0.00781251 0.0089099
0.00781251 0.00656084 -0.00583504
0.0089099 -0.00583504 -0.0215905

0.00565497 0.00343054 0.0037941
0.00343054 0.00565517 -0.00379417
0.0037941 -0.00379417 -0.0126625

0.00656084 -0.00781228 -0.00583503
-0.00781228 0.0136926 -0.00890988
-0.00583503 -0.00890988 -0.0215905

0.0155548 -0.0156389 -0.0129869
-0.0156389 0.0155548 -0.0129869
-0.0129869 -0.0129869 -0.0333354

0.0266015 -0.0178571 -0.0160584
-0.0178571 0.0162077 -0.0212166
-0.0160584 -0.0212166 -0.046062

0.0358645 -0.0123901 -0.0115548
-0.0123901 0.0168435 -0.0291136
-0.0115548 -0.0291136 -0.0567216

0.0404279 -0.00430366 -0.00414139
-0.00430366 0.0174715 -0.033084
-0.00414139 -0.033084 -0.0621703

0.0404278 0.0043037 0.00414135
0.0043037 0.0174715 -0.033084
0.00414135 -0.033084 -0.0621703

0.0358647 0.0123902 0.0115547
0.0123902 0.0168435 -0.0291136
0.0115547 -0.0291136 -0.0567216

0.0266016 0.017857 0.0160583
0.017857 0.0162077 -0.0212166
0.0160583 -0.0212166 -0.046062

0.0155548 0.0156389 0.0129868
0.0156389 0.0155548 -0.0129869
0.0129868 -0.0129869 -0.0333354

0.00656051 0.0078123 0.00583496
0.0078123 0.0136926 -0.00890988
0.00583496 -0.00890988 -0.0215905

0.0044194 -0.00958765 -0.0099405
-0.00958765 0.0241565 -0.0110123
-0.0099405 -0.0110123 -0.0296643

0.0162077 -0.0178571 -0.0212166
-0.0178571 0.0266015 -0.0160584
-0.0212166 -0.0160584 -0.046062

0.0307702 -0.0199479 -0.0264164
-0.0199479 0.0307702 -0.0264164
-0.0264164 -0.0264164 -0.066755

0.0434239 -0.0136536 -0.0187505
-0.0136536 0.0351452 -0.0362377
-0.0187505 -0.0362377 -0.085153

0.0492164 -0.00471666 -0.00667152
-0.00471666 0.0379015 -0.0410053
-0.00667152 -0.0410053 -0.0944448

0.0492164 0.00471666 0.00667152
0.00471666 0.0379015 -0.0410053
0.00667152 -0.0410053 -0.0944448

0.0434239 0.0136535 0.0187505
0.0136535 0.0351452 -0.0362377
0.0187505 -0.0362377 -0.085153

0.0307701 0.0199478 0.0264164
0.0199478 0.0307702 -0.0264164
0.0264164 -0.0264164 -0.066755

0.0162079 0.017857 0.0212166
0.017857 0.0266015 -0.0160584
0.0212166 -0.0160584 -0.046062

0.00441917 0.00958759 0.00994052
0.00958759 0.0241565 -0.0110123
0.00994052 -0.0110123 -0.0296643

0.00198686 -0.0064709 -0.0138274
-0.0064709 0.0330656 -0.00804531
-0.0138274 -0.00804531 -0.0358078

0.0168435 -0.0123901 -0.0291136
-0.0123901 0.0358645 -0.0115548
-0.0291136 -0.0115548 -0.0567216

0.0351452 -0.0136536 -0.0362377
-0.0136536 0.0434239 -0.0187505
-0.0362377 -0.0187505 -0.085153

0.0511338 -0.00901477 -0.0252619
-0.00901477 0.0511338 -0.0252619
-0.0252619 -0.0252619 -0.110592

0.0580578 -0.00304897 -0.00888534
-0.00304897 0.0553963 -0.028159
-0.00888534 -0.028159 -0.12296

0.0580577 0.00304893 0.0088853
0.00304893 0.0553963 -0.028159
0.0088853 -0.028159 -0.12296

0.0511338 0.00901477 0.0252617
0.00901477 0.0511338 -0.0252619
0.0252617 -0.0252619 -0.110592

0.0351452 0.0136537 0.0362376
0.0136537 0.0434239 -0.0187505
0.0362376 -0.0187505 -0.085153

0.0168436 0.0123901 0.0291135
0.0123901 0.0358645 -0.0115548
0.0291135 -0.0115548 -0.0567216

0.00198669 0.00647093 0.0138273
0.00647093 0.0330656 -0.00804531
0.0138273 -0.00804531 -0.0358078

0.000639458 -0.00221545 -0.0157029
-0.00221545 0.0377006 -0.00290059
-0.0157029 -0.00290059 -0.0388739

0.0174715 -0.00430366 -0.033084
-0.00430366 0.0404279 -0.00414139
-0.033084 -0.00414139 -0.0621703

0.0379015 -0.00471666 -0.0410053
-0.00471666 0.0492164 -0.00667152
-0.0410053 -0.00667152 -0.0944448

0.0553963 -0.00304897 -0.028159
-0.00304897 0.0580578 -0.00888534
-0.028159 -0.00888534 -0.12296

0.0627131 -0.00100306 -0.009785
-0.00100306 0.0627131 -0.009785
-0.009785 -0.009785 -0.136361

0.062713 0.0010031 0.00978496
0.0010031 0.0627131 -0.009785
0.00978496 -0.009785 -0.136361

0.0553966 0.00304909 0.0281589
0.00304909 0.0580578 -0.00888534
0.0281589 -0.00888534 -0.12296

0.0379013 0.00471672 0.0410051
0.00471672 0.0492164 -0.00667152
0.0410051 -0.00667152 -0.0944448

0.0174716 0.00430361 0.0330838
0.00430361 0.0404279 -0.00414139
0.0330838 -0.00414139 -0.0621703

0.000639481 0.00221546 0.0157026
0.00221546 0.0377006 -0.00290059
0.0157026 -0.00290059 -0.0388739

0.000639458 0.00221541 -0.0157029
0.00221541 0.0377006 0.00290062
-0.0157029 0.00290062 -0.0388739

0.0174715 0.0043037 -0.033084
0.0043037 0.0404278 0.00414135
-0.033084 0.00414135 -0.0621703

0.0379015 0.00471666 -0.0410053
0.00471666 0.0492164 0.00667152
-0.0410053 0.00667152 -0.0944448

0.0553963 0.00304893 -0.028159
0.00304893 0.0580577 0.0088853
-0.028159 0.0088853 -0.12296

0.0627131 0.0010031 -0.009785
0.0010031 0.062713 0.00978496
-0.009785 0.00978496 -0.136361

0.062713 -0.00100314 0.00978496
-0.00100314 0.062713 0.00978496
0.00978496 0.00978496 -0.136361

0.0553966 -0.00304905 0.0281589
-0.00304905 0.0580577 0.0088853
0.0281589 0.0088853 -0.12296

0.0379013 -0.00471672 0.0410051
-0.00471672 0.0492164 0.00667152
0.0410051 0.00667152 -0.0944448

0.0174716 -0.00430364 0.0330838
-0.00430364 0.0404278 0.00414135
0.0330838 0.00414135 -0.0621703

0.000639481 -0.00221542 0.0157026
-0.00221542 0.0377006 0.00290062
0.0157026 0.00290062 -0.0388739

0.00198686 0.00647087 -0.0138274
0.00647087 0.0330657 0.00804527
-0.0138274 0.00804527 -0.0358078

0.0168435 0.0123902 -0.0291136
0.0123902 0.0358647 0.0115547
-0.0291136 0.0115547 -0.0567216

0.0351452 0.0136535 -0.0362377
0.0136535 0.0434239 0.0187505
-0.0362377 0.0187505 -0.085153

0.0511338 0.00901477 -0.0252619
0.00901477 0.0511338 0.0252617
-0.0252619 0.0252617 -0.110592

0.0580578 0.00304909 -0.00888534
0.00304909 0.0553966 0.0281589
-0.00888534 0.0281589 -0.12296

0.0580577 -0.00304905 0.0088853
-0.00304905 0.0553966 0.0281589
0.0088853 0.0281589 -0.12296

0.0511338 -0.00901478 0.0252617
-0.00901478 0.0511338 0.0252617
0.0252617 0.0252617 -0.110592

0.0351452 -0.0136536 0.0362376
-0.0136536 0.0434239 0.0187505
0.0362376 0.0187505 -0.085153

0.0168436 -0.0123902 0.0291135
-0.0123902 0.0358647 0.0115547
0.0291135 0.0115547 -0.0567216

0.00198669 -0.0064709 0.0138273
-0.0064709 0.0330657 0.00804527
0.0138273 0.00804527 -0.0358078

0.0044194 0.00958778 -0.00994051
0.00958778 0.0241564 0.0110122
-0.00994051 0.0110122 -0.0296643

0.0162077 0.017857 -0.0212166
0.017857 0.0266016 0.0160583
-0.0212166 0.0160583 -0.046062

0.0307702 0.0199478 -0.0264164
0.0199478 0.0307701 0.0264164
-0.0264164 0.0264164 -0.066755

0.0434239 0.0136537 -0.0187505
0.0136537 0.0351452 0.0362376
-0.0187505 0.0362376 -0.085153

0.0492164 0.00471672 -0.00667152
0.00471672 0.0379013 0.0410051
-0.00667152 0.0410051 -0.0944448

0.0492164 -0.00471672 0.00667152
-0.00471672 0.0379013 0.0410051
0.00667152 0.0410051 -0.0944448

0.0434239 -0.0136536 0.0187505
-0.0136536 0.0351452 0.0362376
0.0187505 0.0362376 -0.085153

0.0307701 -0.0199476 0.0264164
-0.0199476 0.0307701 0.0264164
0.0264164 0.0264164 -0.066755

0.0162079 -0.017857 0.0212166
-0.017857 0.0266016 0.0160583
0.0212166 0.0160583 -0.046062

0.00441917 -0.00958772 0.00994052
-0.00958772 0.0241564 0.0110122
0.00994052 0.0110122 -0.0296643

0.00656084 0.00781251 -0.00583504
0.00781251 0.0136926 0.0089099
-0.00583504 0.0089099 -0.0215905

0.0155548 0.0156389 -0.0129869
0.0156389 0.0155548 0.0129868
-0.0129869 0.0129868 -0.0333354

0.0266015 0.017857 -0.0160584
0.017857 0.0162079 0.0212166
-0.0160584 0.0212166 -0.046062

0.0358645 0.0123901 -0.0115548
0.0123901 0.0168436 0.0291135
-0.0115548 0.0291135 -0.0567216

0.0404279 0.00430361 -0.00414139
0.00430361 0.0174716 0.0330838
-0.00414139 0.0330838 -0.0621703

0.0404278 -0.00430364 0.00414135
-0.00430364 0.0174716 0.0330838
0.00414135 0.0330838 -0.0621703

0.0358647 -0.0123902 0.0115547
-0.0123902 0.0168436 0.0291135
0.0115547 0.0291135 -0.0567216

0.0266016 -0.017857 0.0160583
-0.017857 0.0162079 0.0212166
0.0160583 0.0212166 -0.046062

0.0155548 -0.0156388 0.0129868
-0.0156388 0.0155548 0.0129868
0.0129868 0.0129868 -0.0333354

0.00656051 -0.00781253 0.00583496
-0.00781253 0.0136926 0.0089099
0.00583496 0.0089099 -0.0215905

0.00565517 0.00343054 -0.00379417
0.00343054 0.00565497 0.0037941
-0.00379417 0.0037941 -0.0126625

0.0136926 0.0078123 -0.00890988
0.0078123 0.00656051 0.00583496
-0.00890988 0.00583496 -0.0215905

0.0241565 0.00958759 -0.0110123
0.00958759 0.00441917 0.00994052
-0.0110123 0.00994052 -0.0296643

0.0330656 0.00647093 -0.00804531
0.00647093 0.00198669 0.0138273
-0.00804531 0.0138273 -0.0358078

0.0377006 0.00221546 -0.00290059
0.00221546 0.000639481 0.0157026
-0.00290059 0.0157026 -0.0388739

0.0377006 -0.00221542 0.00290062
-0.00221542 0.000639481 0.0157026
0.00290062 0.0157026 -0.0388739

0.0330657 -0.0064709 0.00804527
-0.0064709 0.00198669 0.0138273
0.00804527 0.0138273 -0.0358078

0.0241564 -0.00958772 0.0110122
-0.00958772 0.00441917 0.00994052
0.0110122 0.00994052 -0.0296643

0.0136926 -0.00781253 0.0089099
-0.00781253 0.00656051 0.00583496
0.0089099 0.00583496 -0.0215905

0.00565497 -0.00343064 0.0037941
-0.00343064 0.00565497 0.0037941
0.0037941 0.0037941 -0.0126625

0.00227626 -0.00433811 -0.00273439
-0.00433811 0.00227626 -0.00273439
-0.00273439 -0.00273439 -0.00493359

0.0101541 -0.0100049 -0.00683747
-0.0100049 0.00212337 -0.0053101
-0.00683747 -0.0053101 -0.0126778

0.0208617 -0.0127332 -0.00929339
-0.0127332 -0.0029655 -0.0103056
-0.00929339 -0.0103056 -0.0178663

0.0299225 -0.00774148 -0.00663309
-0.00774148 -0.00770966 -0.0146143
-0.00663309 -0.0146143 -0.0216232

0.0340903 -0.00233871 -0.00251301
-0.00233871 -0.00920157 -0.0161802
-0.00251301 -0.0161802 -0.0240419

0.0340902 0.00233859 0.00251297
0.00233859 -0.00920157 -0.0161802
0.00251297 -0.0161802 -0.0240419

0.0299225 0.00774129 0.00663306
0.00774129 -0.00770966 -0.0146143
0.00663306 -0.0146143 -0.0216232

0.0208618 0.0127332 0.00929336
0.0127332 -0.0029655 -0.0103056
0.00929336 -0.0103056 -0.0178663

0.0101543 0.010005 0.00683749
0.010005 0.00212337 -0.0053101
0.00683749 -0.0053101 -0.0126778

0.00227594 0.00433823 0.00273455
0.00433823 0.00227626 -0.0027344
0.00273455 -0.0027344 -0.0049336

0.00212337 -0.0100049 -0.0053101
-0.0100049 0.0101541 -0.00683747
-0.0053101 -0.00683747 -0.0126778

0.0116301 -0.0206079 -0.0129284
-0.0206079 0.0116301 -0.0129284
-0.0129284 -0.0129284 -0.0248914

0.0238806 -0.0252863 -0.0177559
-0.0252863 0.00968851 -0.0255183
-0.0177559 -0.0255183 -0.0373561

0.0344247 -0.0154182 -0.0125125
-0.0154182 0.00832747 -0.0370905
-0.0125125 -0.0370905 -0.0481671

0.0390091 -0.00464755 -0.00452615
-0.00464755 0.00950192 -0.0411485
-0.00452615 -0.0411485 -0.0541377

0.039009 0.00464767 0.00452619
0.00464767 0.00950192 -0.0411485
0.00452619 -0.0411485 -0.0541377

0.0344247 0.0154184 0.0125125
0.0154184 0.00832748 -0.0370905
0.0125125 -0.0370905 -0.0481671

0.0238807 0.0252864 0.0177558
0.0252864 0.00968851 -0.0255183
0.0177558 -0.0255183 -0.0373561

0.0116302 0.0206078 0.0129284
0.0206078 0.0116301 -0.0129284
0.0129284 -0.0129284 -0.0248914

0.00212305 0.0100048 0.00531013
0.0100048 0.0101541 -0.00683747
0.00531013 -0.00683747 -0.0126778

-0.0029655 -0.0127332 -0.0103056
-0.0127332 0.0208617 -0.00929339
-0.0103056 -0.00929339 -0.0178663

0.00968851 -0.0252863 -0.0255183
-0.0252863 0.0238806 -0.0177559
-0.0255183 -0.0177559 -0.0373561

0.0297267 -0.0310937 -0.0375798
-0.0310937 0.0297267 -0.0375798
-0.0375798 -0.0375798 -0.0666112

0.0472484 -0.0183204 -0.0240832
-0.0183204 0.0364788 -0.0553608
-0.0240832 -0.0553608 -0.0932131

0.0528155 -0.00531977 -0.00802618
-0.00531977 0.0403736 -0.0605473
-0.00802618 -0.0605473 -0.10411

0.0528155 0.00531969 0.00802618
0.00531969 0.0403736 -0.0605473
0.00802618 -0.0605473 -0.10411

0.0472484 0.0183202 0.0240832
0.0183202 0.0364788 -0.0553608
0.0240832 -0.0553608 -0.0932131

0.0297268 0.0310936 0.0375799
0.0310936 0.0297267 -0.0375798
0.0375799 -0.0375798 -0.0666112

0.00968849 0.0252864 0.0255184
0.0252864 0.0238806 -0.0177559
0.0255184 -0.0177559 -0.0373561

-0.00296573 0.0127333 0.0103055
0.0127333 0.0208617 -0.00929339
0.0103055 -0.00929339 -0.0178663

-0.00770966 -0.00774148 -0.0146143
-0.00774148 0.0299225 -0.00663309
-0.0146143 -0.00663309 -0.0216232

0.00832747 -0.0154182 -0.0370905
-0.0154182 0.0344247 -0.0125125
-0.0370905 -0.0125125 -0.0481671

0.0364788 -0.0183204 -0.0553608
-0.0183204 0.0472484 -0.0240832
-0.0553608 -0.0240832 -0.0932131

0.0599478 -0.00974861 -0.0329656
-0.00974861 0.0599478 -0.0329656
-0.0329656 -0.0329656 -0.132549

0.0655109 -0.00261113 -0.010368
-0.00261113 0.0652405 -0.0347417
-0.010368 -0.0347417 -0.145772

0.0655107 0.00261113 0.010368
0.00261113 0.0652405 -0.0347417
0.010368 -0.0347417 -0.145772

0.0599477 0.00974861 0.0329656
0.00974861 0.0599478 -0.0329656
0.0329656 -0.0329656 -0.132549

0.0364791 0.0183203 0.0553608
0.0183203 0.0472484 -0.0240832
0.0553608 -0.0240832 -0.0932131

0.00832757 0.0154181 0.0370907
0.0154181 0.0344247 -0.0125125
0.0370907 -0.0125125 -0.0481671

-0.00770988 0.00774141 0.0146144
0.00774141 0.0299225 -0.00663309
0.0146144 -0.00663309 -0.0216232

-0.00920157 -0.00233871 -0.0161802
-0.00233871 0.0340903 -0.00251301
-0.0161802 -0.00251301 -0.0240419

0.00950192 -0.00464755 -0.0411485
-0.00464755 0.0390091 -0.00452615
-0.0411485 -0.00452615 -0.0541377

0.0403736 -0.00531977 -0.0605473
-0.00531977 0.0528155 -0.00802618
-0.0605473 -0.00802618 -0.10411

0.0652405 -0.00261113 -0.0347417
-0.00261113 0.0655109 -0.010368
-0.0347417 -0.010368 -0.145772

0.0704636 -0.000629098 -0.0106248
-0.000629098 0.0704636 -0.0106248
-0.0106248 -0.0106248 -0.158492

0.0704635 0.000629138 0.0106248
0.000629138 0.0704636 -0.0106248
0.0106248 -0.0106248 -0.158492

0.0652404 0.00261125 0.0347416
0.00261125 0.0655109 -0.010368
0.0347416 -0.010368 -0.145772

0.0403736 0.00531987 0.0605472
0.00531987 0.0528155 -0.00802618
0.0605472 -0.00802618 -0.10411

0.00950194 0.00464751 0.0411486
0.00464751 0.0390091 -0.00452615
0.0411486 -0.00452615 -0.0541377

-0.00920168 0.00233865 0.0161803
0.00233865 0.0340903 -0.002513
0.0161803 -0.002513 -0.0240419

-0.00920157 0.00233859 -0.0161802
0.00233859 0.0340902 0.00251297
-0.0161802 0.00251297 -0.0240419

0.00950192 0.00464767 -0.0411485
0.00464767 0.039009 0.00452619
-0.0411485 0.00452619 -0.0541377

0.0403736 0.00531969 -0.0605473
0.00531969 0.0528155 0.00802618
-0.0605473 0.00802618 -0.10411

0.0652405 0.00261113 -0.0347417
0.00261113 0.0655107 0.010368
-0.0347417 0.010368 -0.145772

0.0704636 0.000629138 -0.0106248
0.000629138 0.0704635 0.0106248
-0.0106248 0.0106248 -0.158492

0.0704635 -0.000629177 0.0106248
-0.000629177 0.0704635 0.0106248
0.0106248 0.0106248 -0.158492

0.0652404 -0.00261125 0.0347416
-0.00261125 0.0655107 0.010368
0.0347416 0.010368 -0.145772

0.0403736 -0.00531979 0.0605472
-0.00531979 0.0528155 0.00802618
0.0605472 0.00802618 -0.10411

0.00950194 -0.00464762 0.0411486
-0.00464762 0.039009 0.00452619
0.0411486 0.00452619 -0.0541377

-0.00920168 -0.00233853 0.0161803
-0.00233853 0.0340902 0.00251296
0.0161803 0.00251296 -0.0240419

-0.00770966 0.00774129 -0.0146143
0.00774129 0.0299225 0.00663306
-0.0146143 0.00663306 -0.0216232

0.00832748 0.0154184 -0.0370905
0.0154184 0.0344247 0.0125125
-0.0370905 0.0125125 -0.0481671

0.0364788 0.0183202 -0.0553608
0.0183202 0.0472484 0.0240832
-0.0553608 0.0240832 -0.0932131

0.0599478 0.00974861 -0.0329656
0.00974861 0.0599477 0.0329656
-0.0329656 0.0329656 -0.132549

0.0655109 0.00261125 -0.010368
0.00261125 0.0652404 0.0347416
-0.010368 0.0347416 -0.145772

0.0655107 -0.00261125 0.010368
-0.00261125 0.0652404 0.0347416
0.010368 0.0347416 -0.145772

0.0599477 -0.00974861 0.0329656
-0.00974861 0.0599477 0.0329656
0.0329656 0.0329656 -0.132549

0.0364791 -0.0183201 0.0553608
-0.0183201 0.0472484 0.0240832
0.0553608 0.0240832 -0.0932131

0.00832758 -0.0154183 0.0370907
-0.0154183 0.0344247 0.0125125
0.0370907 0.0125125 -0.0481671

-0.00770988 -0.00774122 0.0146144
-0.00774122 0.0299225 0.00663306
0.0146144 0.00663306 -0.0216232

-0.0029655 0.0127332 -0.0103056
0.0127332 0.0208618 0.00929336
-0.0103056 0.00929336 -0.0178663

0.00968851 0.0252864 -0.0255183
0.0252864 0.0238807 0.0177558
-0.0255183 0.0177558 -0.0373561

0.0297267 0.0310936 -0.0375798
0.0310936 0.0297268 0.0375799
-0.0375798 0.0375799 -0.0666112

0.0472484 0.0183203 -0.0240832
0.0183203 0.0364791 0.0553608
-0.0240832 0.0553608 -0.0932131

0.0528155 0.00531987 -0.00802618
0.00531987 0.0403736 0.0605472
-0.00802618 0.0605472 -0.10411

0.0528155 -0.00531979 0.00802618
-0.00531979 0.0403736 0.0605472
0.00802618 0.0605472 -0.10411

0.0472484 -0.0183201 0.0240832
-0.0183201 0.0364791 0.0553608
0.0240832 0.0553608 -0.0932131

0.0297268 -0.0310935 0.0375799
-0.0310935 0.0297268 0.0375799
0.0375799 0.0375799 -0.0666112

0.0096885 -0.0252865 0.0255184
-0.0252865 0.0238807 0.0177558
0.0255184 0.0177558 -0.0373561

-0.00296573 -0.0127333 0.0103055
-0.0127333 0.0208618 0.00929337
0.0103055 0.00929337 -0.0178663

0.00212337 0.010005 -0.0053101
0.010005 0.0101543 0.00683749
-0.0053101 0.00683749 -0.0126778

0.0116301 0.0206078 -0.0129284
0.0206078 0.0116302 0.0129284
-0.0129284 0.0129284 -0.0248914

0.0238806 0.0252864 -0.0177559
0.0252864 0.00968849 0.0255184
-0.0177559 0.0255184 -0.0373561

0.0344247 0.0154181 -0.0125125
0.0154181 0.00832757 0.0370907
-0.0125125 0.0370907 -0.0481671

0.0390091 0.00464751 -0.00452615
0.00464751 0.00950194 0.0411486
-0.00452615 0.0411486 -0.0541377

0.039009 -0.00464762 0.00452619
-0.00464762 0.00950194 0.0411486
0.00452619 0.0411486 -0.0541377

0.0344247 -0.0154183 0.0125125
-0.0154183 0.00832758 0.0370907
0.0125125 0.0370907 -0.0481671

0.0238807 -0.0252865 0.0177558
-0.0252865 0.0096885 0.0255184
0.0177558 0.0255184 -0.0373561

0.0116302 -0.0206078 0.0129284
-0.0206078 0.0116302 0.0129284
0.0129284 0.0129284 -0.0248914

0.00212305 -0.0100049 0.00531014
-0.0100049 0.0101543 0.00683749
0.00531014 0.00683749 -0.0126778

0.00227626 0.00433823 -0.0027344
0.00433823 0.00227594 0.00273455
-0.0027344 0.00273455 -0.0049336

0.0101541 0.0100048 -0.00683747
0.0100048 0.00212305 0.00531013
-0.00683747 0.00531013 -0.0126778

0.0208617 0.0127333 -0.00929339
0.0127333 -0.00296573 0.0103055
-0.00929339 0.0103055 -0.0178663

0.0299225 0.00774141 -0.00663309
0.00774141 -0.00770988 0.0146144
-0.00663309 0.0146144 -0.0216232

0.0340903 0.00233865 -0.002513
0.00233865 -0.00920168 0.0161803
-0.002513 0.0161803 -0.0240419

0.0340902 -0.00233853 0.00251296
-0.00233853 -0.00920168 0.0161803
0.00251296 0.0161803 -0.0240419

0.0299225 -0.00774122 0.00663306
-0.00774122 -0.00770988 0.0146144
0.00663306 0.0146144 -0.0216232

0.0208618 -0.0127333 0.00929337
-0.0127333 -0.00296573 0.0103055
0.00929337 0.0103055 -0.0178663

0.0101543 -0.0100049 0.00683749
-0.0100049 0.00212305 0.00531014
0.00683749 0.00531014 -0.0126778

0.00227595 -0.00433836 0.00273455
-0.00433836 0.00227595 0.00273455
0.00273455 0.00273455 -0.00493361

0.000185169 -0.00404729 7.35882e-05
-0.00404729 0.000185169 7.35882e-05
7.35882e-05 7.35882e-05 -7.24543e-05

0.00591971 -0.00955004 -0.00168374
-0.00955004 -0.000866298 -0.00160008
-0.00168374 -0.00160008 -0.00483207

0.0151052 -0.0129899 -0.00353204
-0.0129899 -0.00834931 -0.00368795
-0.00353204 -0.00368795 -0.00518952

0.0222593 -0.00603801 -0.00316666
-0.00603801 -0.0140502 -0.0051368
-0.00316666 -0.0051368 -0.00559209

0.023736 -0.00121217 -0.0014451
-0.00121217 -0.0140031 -0.00565192
-0.0014451 -0.00565192 -0.00756622

0.0237359 0.00121206 0.00144513
0.00121206 -0.0140031 -0.00565192
0.00144513 -0.00565192 -0.00756622

0.0222593 0.00603779 0.00316674
0.00603779 -0.0140502 -0.00513679
0.00316674 -0.00513679 -0.00559209

0.0151052 0.0129898 0.00353212
0.0129898 -0.00834931 -0.00368794
0.00353212 -0.00368794 -0.00518952

0.00591992 0.00955007 0.00168375
0.00955007 -0.000866298 -0.00160008
0.00168375 -0.00160008 -0.00483208

0.000185332 0.00404738 -7.34944e-05
0.00404738 0.000185169 7.35855e-05
-7.34944e-05 7.35855e-05 -7.24615e-05

-0.000866298 -0.00955004 -0.00160008
-0.00955004 0.00591971 -0.00168374
-0.00160008 -0.00168374 -0.00483207

0.00659186 -0.0197065 -0.00875092
-0.0197065 0.00659186 -0.00875092
-0.00875092 -0.00875092 -0.0148446

0.0189028 -0.0290763 -0.0127476
-0.0290763 -0.00307769 -0.0229996
-0.0127476 -0.0229996 -0.0207139

0.0271995 -0.0107421 -0.0105129
-0.0107421 -0.00811011 -0.0345893
-0.0105129 -0.0345893 -0.0271519

0.0293866 -0.0032566 -0.00328357
-0.0032566 -0.00312442 -0.0367322
-0.00328357 -0.0367322 -0.0337119

0.0293865 0.00325671 0.00328353
0.00325671 -0.00312441 -0.0367322
0.00328353 -0.0367322 -0.0337119

0.0271995 0.0107423 0.0105129
0.0107423 -0.0081101 -0.0345893
0.0105129 -0.0345893 -0.0271519

0.0189029 0.0290765 0.0127476
0.0290765 -0.00307769 -0.0229996
0.0127476 -0.0229996 -0.0207139

0.00659194 0.0197065 0.00875095
0.0197065 0.00659186 -0.00875092
0.00875095 -0.00875092 -0.0148446

-0.000866172 0.00954988 0.00160022
0.00954988 0.0059197 -0.00168373
0.00160022 -0.00168373 -0.00483209

-0.00834931 -0.0129899 -0.00368795
-0.0129899 0.0151052 -0.00353204
-0.00368795 -0.00353204 -0.00518952

-0.00307769 -0.0290763 -0.0229996
-0.0290763 0.0189028 -0.0127476
-0.0229996 -0.0127476 -0.0207139

0.0254393 -0.0485059 -0.0550821
-0.0485059 0.0254393 -0.0550821
-0.0550821 -0.0550821 -0.06448

0.050997 -0.0181509 -0.0247583
-0.0181509 0.0362036 -0.0877507
-0.0247583 -0.0877507 -0.10328

0.0476437 -0.00499249 -0.00513341
-0.00499249 0.0408013 -0.0862142
-0.00513341 -0.0862142 -0.107864

0.0476437 0.00499241 0.00513341
0.00499241 0.0408013 -0.0862142
0.00513341 -0.0862142 -0.107864

0.0509971 0.0181508 0.0247584
0.0181508 0.0362036 -0.0877507
0.0247584 -0.0877507 -0.10328

0.0254394 0.0485059 0.0550822
0.0485059 0.0254393 -0.0550821
0.0550822 -0.0550821 -0.06448

-0.00307775 0.0290764 0.0229996
0.0290764 0.0189028 -0.0127476
0.0229996 -0.0127476 -0.0207139

-0.00834944 0.0129899 0.00368811
0.0129899 0.0151052 -0.00353204
0.00368811 -0.00353204 -0.00518953

-0.0140502 -0.00603801 -0.0051368
-0.00603801 0.0222593 -0.00316666
-0.0051368 -0.00316666 -0.00559209

-0.00811011 -0.0107421 -0.0345893
-0.0107421 0.0271995 -0.0105129
-0.0345893 -0.0105129 -0.0271519

0.0362036 -0.0181509 -0.0877507
-0.0181509 0.050997 -0.0247583
-0.0877507 -0.0247583 -0.10328

0.0720556 -0.000520402 -0.0305938
-0.000520402 0.0720556 -0.0305938
-0.0305938 -0.0305938 -0.16248

0.0617371 -3.22533e-05 -0.00471356
-3.22533e-05 0.0738133 -0.0267759
-0.00471356 -0.0267759 -0.160325

0.061737 3.22929e-05 0.00471359
3.22929e-05 0.0738133 -0.0267759
0.00471359 -0.0267759 -0.160325

0.0720556 0.000520402 0.030594
0.000520402 0.0720556 -0.0305938
0.030594 -0.0305938 -0.16248

0.0362037 0.0181508 0.0877508
0.0181508 0.050997 -0.0247583
0.0877508 -0.0247583 -0.10328

-0.00811005 0.010742 0.0345892
0.010742 0.0271995 -0.0105129
0.0345892 -0.0105129 -0.0271519

-0.0140503 0.00603804 0.00513688
0.00603804 0.0222593 -0.00316666
0.00513688 -0.00316666 -0.0055921

-0.0140031 -0.00121217 -0.00565192
-0.00121217 0.023736 -0.0014451
-0.00565192 -0.0014451 -0.00756622

-0.00312442 -0.0032566 -0.0367322
-0.0032566 0.0293866 -0.00328357
-0.0367322 -0.00328357 -0.0337119

0.0408013 -0.00499249 -0.0862142
-0.00499249 0.0476437 -0.00513341
-0.0862142 -0.00513341 -0.107864

0.0738133 -3.22533e-05 -0.0267759
-3.22533e-05 0.0617371 -0.00471356
-0.0267759 -0.00471356 -0.160325

0.0629674 0.000492788 -0.00321566
0.000492788 0.0629674 -0.00321566
-0.00321566 -0.00321566 -0.154836

0.0629673 -0.000492828 0.00321562
-0.000492828 0.0629674 -0.00321566
0.00321562 -0.00321566 -0.154836

0.0738132 3.21737e-05 0.0267759
3.21737e-05 0.0617371 -0.00471355
0.0267759 -0.00471355 -0.160325

0.0408015 0.00499249 0.0862142
0.00499249 0.0476437 -0.00513341
0.0862142 -0.00513341 -0.107864

-0.00312443 0.00325661 0.0367323
0.00325661 0.0293866 -0.00328357
0.0367323 -0.00328357 -0.0337119

-0.0140029 0.0012121 0.00565202
0.0012121 0.023736 -0.00144509
0.00565202 -0.00144509 -0.00756623

-0.0140031 0.00121206 -0.00565192
0.00121206 0.0237359 0.00144513
-0.00565192 0.00144513 -0.00756622

-0.00312441 0.00325671 -0.0367322
0.00325671 0.0293865 0.00328353
-0.0367322 0.00328353 -0.0337119

0.0408013 0.00499241 -0.0862142
0.00499241 0.0476437 0.00513341
-0.0862142 0.00513341 -0.107864

0.0738133 3.22929e-05 -0.0267759
3.22929e-05 0.061737 0.00471359
-0.0267759 0.00471359 -0.160325

0.0629674 -0.000492828 -0.00321566
-0.000492828 0.0629673 0.00321562
-0.00321566 0.00321562 -0.154836

0.0629673 0.000492867 0.00321562
0.000492867 0.0629673 0.00321562
0.00321562 0.00321562 -0.154836

0.0738132 -3.22133e-05 0.0267759
-3.22133e-05 0.061737 0.00471359
0.0267759 0.00471359 -0.160325

0.0408015 -0.00499241 0.0862142
-0.00499241 0.0476437 0.00513341
0.0862142 0.00513341 -0.107864

-0.00312443 -0.00325672 0.0367323
-0.00325672 0.0293865 0.00328353
0.0367323 0.00328353 -0.0337119

-0.0140029 -0.00121199 0.00565202
-0.00121199 0.0237359 0.00144513
0.00565202 0.00144513 -0.00756623

-0.0140502 0.00603779 -0.00513679
0.00603779 0.0222593 0.00316674
-0.00513679 0.00316674 -0.00559209

-0.0081101 0.0107423 -0.0345893
0.0107423 0.0271995 0.0105129
-0.0345893 0.0105129 -0.0271519

0.0362036 0.0181508 -0.0877507
0.0181508 0.0509971 0.0247584
-0.0877507 0.0247584 -0.10328

0.0720556 0.000520402 -0.0305938
0.000520402 0.0720556 0.030594
-0.0305938 0.030594 -0.16248

0.0617371 3.21737e-05 -0.00471355
3.21737e-05 0.0738132 0.0267759
-0.00471355 0.0267759 -0.160325

0.061737 -3.22133e-05 0.00471359
-3.22133e-05 0.0738132 0.0267759
0.00471359 0.0267759 -0.160325

0.0720556 -0.000520401 0.030594
-0.000520401 0.0720556 0.030594
0.030594 0.030594 -0.16248

0.0362037 -0.0181507 0.0877508
-0.0181507 0.0509971 0.0247584
0.0877508 0.0247584 -0.10328

-0.00811004 -0.0107422 0.0345892
-0.0107422 0.0271995 0.0105129
0.0345892 0.0105129 -0.0271519

-0.0140503 -0.00603782 0.00513687
-0.00603782 0.0222593 0.00316674
0.00513687 0.00316674 -0.0055921

-0.00834931 0.0129898 -0.00368794
0.0129898 0.0151052 0.00353212
-0.00368794 0.00353212 -0.00518952

-0.00307769 0.0290765 -0.0229996
0.0290765 0.0189029 0.0127476
-0.0229996 0.0127476 -0.0207139

0.0254393 0.0485059 -0.0550821
0.0485059 0.0254394 0.0550822
-0.0550821 0.0550822 -0.06448

0.050997 0.0181508 -0.0247583
0.0181508 0.0362037 0.0877508
-0.0247583 0.0877508 -0.10328

0.0476437 0.00499249 -0.00513341
0.00499249 0.0408015 0.0862142
-0.00513341 0.0862142 -0.107864

0.0476437 -0.00499241 0.00513341
-0.00499241 0.0408015 0.0862142
0.00513341 0.0862142 -0.107864

0.0509971 -0.0181507 0.0247584
-0.0181507 0.0362037 0.0877508
0.0247584 0.0877508 -0.10328

0.0254394 -0.0485059 0.0550821
-0.0485059 0.0254394 0.0550821
0.0550821 0.0550821 -0.06448

-0.00307774 -0.0290765 0.0229996
-0.0290765 0.0189029 0.0127476
0.0229996 0.0127476 -0.0207139

-0.00834944 -0.0129898 0.00368811
-0.0129898 0.0151052 0.00353211
0.00368811 0.00353211 -0.00518953

-0.000866298 0.00955007 -0.00160008
0.00955007 0.00591992 0.00168375
-0.00160008 0.00168375 -0.00483208

0.00659186 0.0197065 -0.00875092
0.0197065 0.00659194 0.00875095
-0.00875092 0.00875095 -0.0148446

0.0189028 0.0290764 -0.0127476
0.0290764 -0.00307775 0.0229996
-0.0127476 0.0229996 -0.0207139

0.0271995 0.010742 -0.0105129
0.010742 -0.00811005 0.0345892
-0.0105129 0.0345892 -0.0271519

0.0293866 0.00325661 -0.00328357
0.00325661 -0.00312443 0.0367323
-0.00328357 0.0367323 -0.0337119

0.0293865 -0.00325672 0.00328353
-0.00325672 -0.00312443 0.0367323
0.00328353 0.0367323 -0.0337119

0.0271995 -0.0107422 0.0105129
-0.0107422 -0.00811004 0.0345892
0.0105129 0.0345892 -0.0271519

0.0189029 -0.0290765 0.0127476
-0.0290765 -0.00307774 0.0229996
0.0127476 0.0229996 -0.0207139

0.00659194 -0.0197065 0.00875095
-0.0197065 0.00659194 0.00875095
0.00875095 0.00875095 -0.0148446

-0.000866172 -0.00954991 0.00160022
-0.00954991 0.00591991 0.00168374
0.00160022 0.00168374 -0.00483209

0.000185169 0.00404738 7.35855e-05
0.00404738 0.000185332 -7.34944e-05
7.35855e-05 -7.34944e-05 -7.24615e-05

0.0059197 0.00954988 -0.00168373
0.00954988 -0.000866172 0.00160022
-0.00168373 0.00160022 -0.00483209

0.0151052 0.0129899 -0.00353204
0.0129899 -0.00834944 0.00368811
-0.00353204 0.00368811 -0.00518953

0.0222593 0.00603804 -0.00316666
0.00603804 -0.0140503 0.00513688
-0.00316666 0.00513688 -0.0055921

0.023736 0.0012121 -0.00144509
0.0012121 -0.0140029 0.00565202
-0.00144509 0.00565202 -0.00756623

0.0237359 -0.00121199 0.00144513
-0.00121199 -0.0140029 0.00565202
0.00144513 0.00565202 -0.00756623

0.0222593 -0.00603782 0.00316674
-0.00603782 -0.0140503 0.00513687
0.00316674 0.00513687 -0.0055921

0.0151052 -0.0129898 0.00353211
-0.0129898 -0.00834944 0.00368811
0.00353211 0.00368811 -0.00518953

0.00591991 -0.00954991 0.00168374
-0.00954991 -0.000866172 0.00160022
0.00168374 0.00160022 -0.00483209

0.000185333 -0.00404747 -7.34917e-05
-0.00404747 0.000185333 -7.34917e-05
-7.34917e-05 -7.34917e-05 -7.24687e-05

-0.000130095 -0.000568011 0.00262046
-0.000568011 -0.000130095 0.00262046
0.00262046 0.00262046 0.000327028

0.0027737 -0.00202536 0.00353703
-0.00202536 0.000260694 0.00416655
0.00353703 0.00416655 -0.00257136

0.00672284 -0.00437183 0.00329425
-0.00437183 -0.00285122 0.00881778
0.00329425 0.00881778 -0.00293067

0.00897869 0.00025385 -0.000179245
0.00025385 -0.00419344 0.0118161
-0.000179245 0.0118161 -0.00324397

0.00677625 0.00119174 -0.000533447
0.00119174 -0.00180936 0.0118888
-0.000533447 0.0118888 -0.00425249

0.00677617 -0.00119185 0.000533408
-0.00119185 -0.00180936 0.0118888
0.000533408 0.0118888 -0.00425249

0.00897885 -0.000254001 0.000179247
-0.000254001 -0.00419344 0.0118161
0.000179247 0.0118161 -0.00324397

0.00672269 0.00437179 -0.00329425
0.00437179 -0.00285122 0.00881778
-0.00329425 0.00881778 -0.00293067

0.00277374 0.0020254 -0.00353712
0.0020254 0.000260694 0.00416655
-0.00353712 0.00416655 -0.00257135

-0.000129844 0.000568022 -0.0026207
0.000568022 -0.000130095 0.00262046
-0.0026207 0.00262046 0.000327049

0.000260694 -0.00202536 0.00416655
-0.00202536 0.0027737 0.00353703
0.00416655 0.00353703 -0.00257136

0.00480184 -0.00451107 -0.000578171
-0.00451107 0.00480184 -0.000578171
-0.000578171 -0.000578171 -0.0094512

0.0104869 -0.0101415 0.00199752
-0.0101415 -0.000202799 0.0017943
0.00199752 0.0017943 -0.00886782

0.00754927 0.00276304 -0.00723175
0.00276304 0.000282261 0.00043868
-0.00723175 0.00043868 -0.00945819

0.00949955 -0.000994441 -0.00145346
-0.000994441 0.00583895 -0.00660776
-0.00145346 -0.00660776 -0.0147676

0.0094994 0.000994516 0.00145346
0.000994516 0.00583895 -0.00660776
0.00145346 -0.00660776 -0.0147676

0.0075495 -0.00276293 0.0072318
-0.00276293 0.000282262 0.000438676
0.0072318 0.000438676 -0.00945819

0.0104868 0.0101416 -0.00199747
0.0101416 -0.000202798 0.0017943
-0.00199747 0.0017943 -0.00886783

0.00480182 0.00451111 0.000578155
0.00451111 0.00480184 -0.000578174
0.000578155 -0.000578174 -0.00945119

0.000260856 0.00202536 -0.00416674
0.00202536 0.0027737 0.00353703
-0.00416674 0.00353703 -0.00257134

-0.00285122 -0.00437183 0.00881778
-0.00437183 0.00672284 0.00329425
0.00881778 0.00329425 -0.00293067

-0.000202799 -0.0101415 0.0017943
-0.0101415 0.0104869 0.00199752
0.0017943 0.00199752 -0.00886782

0.0180894 -0.0241097 -0.0631726
-0.0241097 0.0180894 -0.0631726
-0.0631726 -0.0631726 -0.0688515

0.0328881 -0.00687041 0.00468293
-0.00687041 0.0459259 -0.109845
0.00468293 -0.109845 -0.10912

0.0218237 -0.00237822 0.00409122
-0.00237822 0.0428503 -0.0997961
0.00409122 -0.0997961 -0.0921386

0.0218237 0.00237822 -0.00409122
0.00237822 0.0428503 -0.0997961
-0.00409122 -0.0997961 -0.0921386

0.0328882 0.00687037 -0.00468305
0.00687037 0.0459259 -0.109845
-0.00468305 -0.109845 -0.10912

0.0180895 0.0241097 0.0631725
0.0241097 0.0180894 -0.0631726
0.0631725 -0.0631726 -0.0688514

-0.000202908 0.0101415 -0.00179426
0.0101415 0.0104869 0.00199752
-0.00179426 0.00199752 -0.00886782

-0.00285106 0.00437185 -0.00881784
0.00437185 0.00672284 0.00329424
-0.00881784 0.00329424 -0.00293066

-0.00419344 0.00025385 0.0118161
0.00025385 0.00897869 -0.000179245
0.0118161 -0.000179245 -0.00324397

0.000282261 0.00276304 0.00043868
0.00276304 0.00754927 -0.00723175
0.00043868 -0.00723175 -0.00945819

0.0459259 -0.00687041 -0.109845
-0.00687041 0.0328881 0.00468293
-0.109845 0.00468293 -0.10912

0.0558828 0.0111475 0.0210361
0.0111475 0.0558828 0.0210361
0.0210361 0.0210361 -0.164374

0.0281628 0.00232169 0.0103284
0.00232169 0.0509508 0.0226936
0.0103284 0.0226936 -0.125047

0.0281628 -0.00232169 -0.0103284
-0.00232169 0.0509508 0.0226936
-0.0103284 0.0226936 -0.125047

0.0558828 -0.0111476 -0.0210362
-0.0111476 0.0558828 0.0210361
-0.0210362 0.0210361 -0.164374

0.045926 0.00687028 0.109844
0.00687028 0.0328881 0.00468295
0.109844 0.00468295 -0.10912

0.000282209 -0.00276321 -0.00043868
-0.00276321 0.00754927 -0.00723173
-0.00043868 -0.00723173 -0.00945818

-0.00419318 -0.000253942 -0.0118162
-0.000253942 0.00897869 -0.000179236
-0.0118162 -0.000179236 -0.00324396

-0.00180936 0.00119174 0.0118888
0.00119174 0.00677625 -0.000533447
0.0118888 -0.000533447 -0.00425249

0.00583895 -0.000994441 -0.00660776
-0.000994441 0.00949955 -0.00145346
-0.00660776 -0.00145346 -0.0147676

0.0428503 -0.00237822 -0.0997961
-0.00237822 0.0218237 0.00409122
-0.0997961 0.00409122 -0.0921386

0.0509508 0.00232169 0.0226936
0.00232169 0.0281628 0.0103284
0.0226936 0.0103284 -0.125047

0.0245627 0.00127489 0.0110217
0.00127489 0.0245627 0.0110217
0.0110217 0.0110217 -0.084625

0.0245626 -0.00127493 -0.0110217
-0.00127493 0.0245627 0.0110217
-0.0110217 0.0110217 -0.084625

0.0509508 -0.00232169 -0.0226935
-0.00232169 0.0281628 0.0103284
-0.0226935 0.0103284 -0.125047

0.0428503 0.00237831 0.099796
0.00237831 0.0218237 0.00409121
0.099796 0.00409121 -0.0921386

0.00583892 0.000994552 0.00660772
0.000994552 0.00949955 -0.00145348
0.00660772 -0.00145348 -0.0147676

-0.00180908 -0.00119169 -0.0118889
-0.00119169 0.00677625 -0.000533452
-0.0118889 -0.000533452 -0.00425246

-0.00180936 -0.00119185 0.0118888
-0.00119185 0.00677617 0.000533408
0.0118888 0.000533408 -0.00425249

0.00583895 0.000994516 -0.00660776
0.000994516 0.0094994 0.00145346
-0.00660776 0.00145346 -0.0147676

0.0428503 0.00237822 -0.0997961
0.00237822 0.0218237 -0.00409122
-0.0997961 -0.00409122 -0.0921386

0.0509508 -0.00232169 0.0226936
-0.00232169 0.0281628 -0.0103284
0.0226936 -0.0103284 -0.125047

0.0245627 -0.00127493 0.0110217
-0.00127493 0.0245626 -0.0110217
0.0110217 -0.0110217 -0.084625

0.0245626 0.00127496 -0.0110217
0.00127496 0.0245626 -0.0110217
-0.0110217 -0.0110217 -0.084625

0.0509508 0.00232169 -0.0226935
0.00232169 0.0281628 -0.0103284
-0.0226935 -0.0103284 -0.125047

0.0428503 -0.00237831 0.099796
-0.00237831 0.0218237 -0.00409121
0.099796 -0.00409121 -0.0921386

0.00583892 -0.000994627 0.00660772
-0.000994627 0.0094994 0.00145348
0.00660772 0.00145348 -0.0147676

-0.00180908 0.00119181 -0.0118889
0.00119181 0.00677617 0.000533413
-0.0118889 0.000533413 -0.00425246

-0.00419344 -0.000254001 0.0118161
-0.000254001 0.00897885 0.000179247
0.0118161 0.000179247 -0.00324397

0.000282262 -0.00276293 0.000438676
-0.00276293 0.0075495 0.0072318
0.000438676 0.0072318 -0.00945819

0.0459259 0.00687037 -0.109845
0.00687037 0.0328882 -0.00468305
-0.109845 -0.00468305 -0.10912

0.0558828 -0.0111476 0.0210361
-0.0111476 0.0558828 -0.0210362
0.0210361 -0.0210362 -0.164374

0.0281628 -0.00232169 0.0103284
-0.00232169 0.0509508 -0.0226935
0.0103284 -0.0226935 -0.125047

0.0281628 0.00232169 -0.0103284
0.00232169 0.0509508 -0.0226935
-0.0103284 -0.0226935 -0.125047

0.0558828 0.0111476 -0.0210362
0.0111476 0.0558828 -0.0210362
-0.0210362 -0.0210362 -0.164374

0.045926 -0.00687024 0.109844
-0.00687024 0.0328882 -0.00468306
0.109844 -0.00468306 -0.10912

0.00028221 0.0027631 -0.000438676
0.0027631 0.0075495 0.00723177
-0.000438676 0.00723177 -0.00945819

-0.00419318 0.000254092 -0.0118162
0.000254092 0.00897885 0.000179238
-0.0118162 0.000179238 -0.00324396

-0.00285122 0.00437179 0.00881778
0.00437179 0.00672269 -0.00329425
0.00881778 -0.00329425 -0.00293067

-0.000202798 0.0101416 0.0017943
0.0101416 0.0104868 -0.00199747
0.0017943 -0.00199747 -0.00886783

0.0180894 0.0241097 -0.0631726
0.0241097 0.0180895 0.0631725
-0.0631726 0.0631725 -0.0688514

0.0328881 0.00687028 0.00468295
0.00687028 0.045926 0.109844
0.00468295 0.109844 -0.10912

0.0218237 0.00237831 0.00409121
0.00237831 0.0428503 0.099796
0.00409121 0.099796 -0.0921386

0.0218237 -0.00237831 -0.00409121
-0.00237831 0.0428503 0.099796
-0.00409121 0.099796 -0.0921386

0.0328882 -0.00687024 -0.00468306
-0.00687024 0.045926 0.109844
-0.00468306 0.109844 -0.10912

0.0180895 -0.0241097 0.0631725
-0.0241097 0.0180895 0.0631725
0.0631725 0.0631725 -0.0688514

-0.000202908 -0.0101416 -0.00179426
-0.0101416 0.0104868 -0.00199746
-0.00179426 -0.00199746 -0.00886783

-0.00285106 -0.00437181 -0.00881784
-0.00437181 0.00672269 -0.00329424
-0.00881784 -0.00329424 -0.00293066

0.000260694 0.0020254 0.00416655
0.0020254 0.00277374 -0.00353712
0.00416655 -0.00353712 -0.00257135

0.00480184 0.00451111 -0.000578174
0.00451111 0.00480182 0.000578155
-0.000578174 0.000578155 -0.00945119

0.0104869 0.0101415 0.00199752
0.0101415 -0.000202908 -0.00179426
0.00199752 -0.00179426 -0.00886782

0.00754927 -0.00276321 -0.00723173
-0.00276321 0.000282209 -0.00043868
-0.00723173 -0.00043868 -0.00945818

0.00949955 0.000994552 -0.00145348
0.000994552 0.00583892 0.00660772
-0.00145348 0.00660772 -0.0147676

0.0094994 -0.000994627 0.00145348
-0.000994627 0.00583892 0.00660772
0.00145348 0.00660772 -0.0147676

0.0075495 0.0027631 0.00723177
0.0027631 0.00028221 -0.000438676
0.00723177 -0.000438676 -0.00945819

0.0104868 -0.0101416 -0.00199746
-0.0101416 -0.000202908 -0.00179426
-0.00199746 -0.00179426 -0.00886783

0.00480182 -0.00451116 0.000578158
-0.00451116 0.00480182 0.000578158
0.000578158 0.000578158 -0.00945119

0.000260856 -0.0020254 -0.00416674
-0.0020254 0.00277374 -0.00353712
-0.00416674 -0.00353712 -0.00257133

-0.000130095 0.000568022 0.00262046
0.000568022 -0.000129844 -0.0026207
0.00262046 -0.0026207 0.000327049

0.0027737 0.00202536 0.00353703
0.00202536 0.000260856 -0.00416674
0.00353703 -0.00416674 -0.00257134

0.00672284 0.00437185 0.00329424
0.00437185 -0.00285106 -0.00881784
0.00329424 -0.00881784 -0.00293066

0.00897869 -0.000253942 -0.000179236
-0.000253942 -0.00419318 -0.0118162
-0.000179236 -0.0118162 -0.00324396

0.00677625 -0.00119169 -0.000533452
-0.00119169 -0.00180908 -0.0118889
-0.000533452 -0.0118889 -0.00425246

0.00677617 0.00119181 0.000533413
0.00119181 -0.00180908 -0.0118889
0.000533413 -0.0118889 -0.00425246

0.00897885 0.000254092 0.000179238
0.000254092 -0.00419318 -0.0118162
0.000179238 -0.0118162 -0.00324396

0.00672269 -0.00437181 -0.00329424
-0.00437181 -0.00285106 -0.00881784
-0.00329424 -0.00881784 -0.00293066

0.00277374 -0.0020254 -0.00353712
-0.0020254 0.000260856 -0.00416674
-0.00353712 -0.00416674 -0.00257133

-0.000129844 -0.000568034 -0.00262069
-0.000568034 -0.000129844 -0.00262069
-0.00262069 -0.00262069 0.000327069

SCALARS pressure float
LOOKUP_TABLE default
0.246484
0.198748
0.202732
0.20399
0.205967
0.205967
0.20399
0.202732
0.198748
0.246484
0.198748
0.145181
0.151929
0.152995
0.154684
0.154684
0.152995
0.151929
0.145181
0.198748
0.202732
0.151929
0.159498
0.16216
0.164545
0.164545
0.16216
0.159498
0.151929
0.202732
0.20399
0.152995
0.16216
0.165565
0.168464
0.168464
0.165565
0.16216
0.152995
0.20399
0.205967
0.154684
0.164545
0.168464
0.171625
0.171625
0.168464
0.164545
0.154684
0.205967
0.205967
0.154684
0.164545
0.168464
0.171625
0.171625
0.168464
0.164545
0.154684
0.205967
0.20399
0.152995
0.16216
0.165565
0.168464
0.168464
0.165565
0.16216
0.152995
0.20399
0.202732
0.151929
0.159498
0.16216
0.164545
0.164545
0.16216
0.159498
0.151929
0.202732
0.198748
0.145181
0.151929
0.152995
0.154684
0.154684
0.152995
0.151929
0.145181
0.198748
0.246484
0.198748
0.202732
0.20399
0.205967
0.205967
0.20399
0.202732
0.198748
0.246484
0.0681617
0.097602
0.0915745
0.0914657
0.090956
0.090956
0.0914657
0.0915745
0.097602
0.0681617
0.097602
0.127055
0.125779
0.128898
0.129837
0.129837
0.128898
0.125779
0.127055
0.097602
0.0915745
0.125779
0.125275
0.129799
0.131412
0.131412
0.129799
0.125275
0.125779
0.0915745
0.0914657
0.128898
0.129799
0.135201
0.137317
0.137317
0.135201
0.129799
0.128898
0.0914657
0.090956
0.129837
0.131412
0.137317
0.139649
0.139649
0.137317
0.131412
0.129837
0.090956
0.090956
0.129837
0.131412
0.137317
0.139649
0.139649
0.137317
0.131412
0.129837
0.090956
0.0914657
0.128898
0.129799
0.135201
0.137317
0.137317
0.135201
0.129799
0.128898
0.0914657
0.0915745
0.125779
0.125275
0.129799
0.131412
0.131412
0.129799
0.125275
0.125779
0.0915745
0.097602
0.127055
0.125779
0.128898
0.129837
0.129837
0.128898
0.125779
0.127055
0.097602
0.0681617
0.097602
0.0915745
0.0914657
0.090956
0.090956
0.0914657
0.0915745
0.097602
0.0681617
0.0602348
0.0673625
0.0729009
0.0717381
0.0712605
0.0712605
0.0717381
0.0729009
0.0673625
0.0602348
0.0673625
0.0804415
0.0881133
0.0898919
0.0909236
0.0909236
0.0898919
0.0881133
0.0804415
0.0673625
0.0729009
0.0881133
0.0994805
0.102898
0.10497
0.10497
0.102898
0.0994805
0.0881133
0.0729009
0.0717381
0.0898919
0.102898
0.107378
0.109947
0.109947
0.107378
0.102898
0.0898919
0.0717381
0.0712605
0.0909236
0.10497
0.109947
0.112763
0.112763
0.109947
0.10497
0.0909236
0.0712605
0.0712605
0.0909236
0.10497
0.109947
0.112763
0.112763
0.109947
0.10497
0.0909236
0.0712605
0.0717381
0.0898919
0.102898
0.107378
0.109947
0.109947
0.107378
0.102898
0.0898919
0.0717381
0.0729009
0.0881133
0.0994805
0.102898
0.10497
0.10497
0.102898
0.0994805
0.0881133
0.0729009
0.0673625
0.0804415
0.0881133
0.0898919
0.0909236
0.0909236
0.0898919
0.0881133
0.0804415
0.0673625
0.0602348
0.0673625
0.0729009
0.0717381
0.0712605
0.0712605
0.0717381
0.0729009
0.0673625
0.0602348
0.054639
0.0558628
0.0568115
0.0561042
0.0551073
0.0551073
0.0561042
0.0568115
0.0558628
0.054639
0.0558628
0.0629525
0.0678167
0.0705893
0.0714313
0.0714313
0.0705893
0.0678167
0.0629525
0.0558628
0.0568115
0.0678167
0.0756116
0.0805796
0.0825443
0.0825443
0.0805796
0.0756116
0.0678167
0.0568115
0.0561042
0.0705893
0.0805796
0.0869069
0.0894974
0.0894974
0.0869069
0.0805796
0.0705893
0.0561042
0.0551073
0.0714313
0.0825443
0.0894974
0.0923735
0.0923735
0.0894974
0.0825443
0.0714313
0.0551073
0.0551073
0.0714313
0.0825443
0.0894974
0.0923735
0.0923735
0.0894974
0.0825443
0.0714313
0.0551073
0.0561042
0.0705893
0.0805796
0.0869069
0.0894974
0.0894974
0.0869069
0.0805796
0.0705893
0.0561042
0.0568115
0.0678167
0.0756116
0.0805796
0.0825443
0.0825443
0.0805796
0.0756116
0.0678167
0.0568115
0.0558628
0.0629525
0.0678167
0.0705893
0.0714313
0.0714313
0.0705893
0.0678167
0.0629525
0.0558628
0.054639
0.0558628
0.0568115
0.0561042
0.0551073
0.0551073
0.0561042
0.0568115
0.0558628
0.054639
0.0477921
0.0464578
0.0444278
0.0415987
0.039902
0.039902
0.0415987
0.0444278
0.0464578
0.0477921
0.0464578
0.0502687
0.0542548
0.0566191
0.0575642
0.0575642
0.0566191
0.0542548
0.0502687
0.0464578
0.0444278
0.0542548
0.0624447
0.0676587
0.0702233
0.0702233
0.0676587
0.0624447
0.0542548
0.0444278
0.0415987
0.0566191
0.0676587
0.0745145
0.077971
0.077971
0.0745145
0.0676587
0.0566191
0.0415987
0.039902
0.0575642
0.0702233
0.077971
0.0819419
0.0819419
0.077971
0.0702233
0.0575642
0.039902
0.039902
0.0575642
0.0702233
0.077971
0.0819419
0.0819419
0.077971
0.0702233
0.0575642
0.039902
0.0415987
0.0566191
0.0676587
0.0745145
0.077971
0.077971
0.0745145
0.0676587
0.0566191
0.0415987
0.0444278
0.0542548
0.0624447
0.0676587
0.0702233
0.0702233
0.0676587
0.0624447
0.0542548
0.0444278
0.0464578
0.0502687
0.0542548
0.0566191
0.0575642
0.0575642
0.0566191
0.0542548
0.0502687
0.0464578
0.0477921
0.0464578
0.0444278
0.0415987
0.039902
0.039902
0.0415987
0.0444278
0.0464578
0.0477921
0.0365805
0.0346202
0.0300443
0.0246975
0.0217219
0.0217219
0.0246975
0.0300443
0.0346202
0.0365805
0.0346202
0.0395414
0.0451394
0.0486408
0.0499301
0.0499301
0.0486408
0.0451394
0.0395414
0.0346202
0.0300443
0.0451394
0.0568867
0.0646053
0.068367
0.068367
0.0646053
0.0568867
0.0451394
0.0300443
0.0246975
0.0486408
0.0646053
0.0749992
0.0804368
0.0804368
0.0749992
0.0646053
0.0486408
0.0246975
0.0217219
0.0499301
0.068367
0.0804368
0.0874599
0.0874599
0.0804368
0.068367
0.0499301
0.0217219
0.0217219
0.0499301
0.068367
0.0804368
0.0874599
0.0874599
0.0804368
0.068367
0.0499301
0.0217219
0.0246975
0.0486408
0.0646053
0.0749992
0.0804368
0.0804368
0.0749992
0.0646053
0.0486408
0.0246975
0.0300443
0.0451394
0.0568867
0.0646053
0.068367
0.068367
0.0646053
0.0568867
0.0451394
0.0300443
0.0346202
0.0395414
0.0451394
0.0486408
0.0499301
0.0499301
0.0486408
0.0451394
0.0395414
0.0346202
0.0365805
0.0346202
0.0300443
0.0246975
0.0217219
0.0217219
0.0246975
0.0300443
0.0346202
0.0365805
0.021525
0.0195855
0.012875
0.00530465
0.000479693
0.000479693
0.00530465
0.012875
0.0195855
0.021525
0.0195855
0.0302401
0.0415165
0.049874
0.0518773
0.0518773
0.049874
0.0415165
0.0302401
0.0195855
0.012875
0.0415165
0.0624549
0.0762492
0.0839156
0.0839156
0.0762492
0.0624549
0.0415165
0.012875
0.00530465
0.049874
0.0762492
0.0930265
0.106667
0.106667
0.0930265
0.0762492
0.049874
0.00530465
0.000479693
0.0518773
0.0839156
0.106667
0.124024
0.124024
0.106667
0.0839156
0.0518773
0.000479693
0.000479693
0.0518773
0.0839156
0.106667
0.124024
0.124024
0.106667
0.0839156
0.0518773
0.000479693
0.00530465
0.049874
0.0762492
0.0930265
0.106667
0.106667
0.0930265
0.0762492
0.049874
0.00530465
0.012875
0.0415165
0.0624549
0.0762492
0.0839156
0.0839156
0.0762492
0.0624549
0.0415165
0.012875
0.0195855
0.0302401
0.0415165
0.049874
0.0518773
0.0518773
0.049874
0.0415165
0.0302401
0.0195855
0.021525
0.0195855
0.012875
0.00530465
0.000479693
0.000479693
0.00530465
0.012875
0.0195855
0.021525
0.00579538
0.00491269
-0.0045091
-0.0152527
-0.0203608
-0.0203608
-0.0152527
-0.0045091
0.00491269
0.00579538
0.00491269
0.02093
0.0493896
0.0723261
0.0738275
0.0738275
0.0723261
0.0493896
0.02093
0.00491269
-0.0045091
0.0493896
0.0813063
0.107376
0.126471
0.126471
0.107376
0.0813063
0.0493896
-0.0045091
-0.0152527
0.0723261
0.107376
0.146449
0.181749
0.181749
0.146449
0.107376
0.0723261
-0.0152527
-0.0203608
0.0738275
0.126471
0.181749
0.220547
0.220547
0.181749
0.126471
0.0738275
-0.0203608
-0.0203608
0.0738275
0.126471
0.181749
0.220547
0.220547
0.181749
0.126471
0.0738275
-0.0203608
-0.0152527
0.0723261
0.107376
0.146449
0.181749
0.181749
0.146449
0.107376
0.0723261
-0.0152527
-0.0045091
0.0493896
0.0813063
0.107376
0.126471
0.126471
0.107376
0.0813063
0.0493896
-0.0045091
0.00491269
0.02093
0.0493896
0.0723261
0.0738275
0.0738275
0.0723261
0.0493896
0.02093
0.00491269
0.00579538
0.00491269
-0.0045091
-0.0152527
-0.0203608
-0.0203608
-0.0152527
-0.0045091
0.00491269
0.00579538
-0.00524715
-0.00461065
-0.0283633
-0.0461898
-0.0388041
-0.0388041
-0.0461898
-0.0283633
-0.00461065
-0.00524715
-0.00461065
0.0232168
0.0699418
0.121731
0.111805
0.111805
0.121731
0.0699418
0.0232168
-0.00461065
-0.0283633
0.0699418
0.137779
0.173984
0.244236
0.244236
0.173984
0.137779
0.0699418
-0.0283633
-0.0461898
0.121731
0.173984
0.222499
0.345079
0.345079
0.222499
0.173984
0.121731
-0.0461898
-0.0388041
0.111805
0.244236
0.345079
0.426335
0.426335
0.345079
0.244236
0.111805
-0.0388041
-0.0388041
0.111805
0.244236
0.345079
0.426335
0.426335
0.345079
0.244236
0.111805
-0.0388041
-0.0461898
0.121731
0.173984
0.222499
0.345079
0.345079
0.222499
0.173984
0.121731
-0.0461898
-0.0283633
0.0699418
0.137779
0.173984
0.244236
0.244236
0.173984
0.137779
0.0699418
-0.0283633
-0.00461065
0.0232168
0.0699418
0.121731
0.111805
0.111805
0.121731
0.0699418
0.0232168
-0.00461065
-0.00524715
-0.00461065
-0.0283633
-0.0461898
-0.0388041
-0.0388041
-0.0461898
-0.0283633
-0.00461065
-0.00524715
-0.00140565
-0.00876872
-0.018093
-0.0285062
-0.0144782
-0.0144782
-0.0285062
-0.018093
-0.00876872
-0.00140565
-0.00876872
-0.00698607
-0.0322284
0.0191563
-0.0135604
-0.0135604
0.0191563
-0.0322284
-0.00698607
-0.00876872
-0.018093
-0.0322284
0.282484
0.368962
0.375913
0.375913
0.368962
0.282484
-0.0322284
-0.018093
-0.0285062
0.0191563
0.368962
0.82845
0.737484
0.737484
0.82845
0.368962
0.0191563
-0.0285062
-0.0144782
-0.0135604
0.375913
0.737484
0.579455
0.579455
0.737484
0.375913
-0.0135604
-0.0144782
-0.0144782
-0.0135604
0.375913
0.737484
0.579455
0.579455
0.737484
0.375913
-0.0135604
-0.0144782
-0.0285062
0.0191563
0.368962
0.82845
0.737484
0.737484
0.82845
0.368962
0.0191563
-0.0285062
-0.018093
-0.0322284
0.282484
0.368962
0.375913
0.375913
0.368962
0.282484
-0.0322284
-0.018093
-0.00876872
-0.00698607
-0.0322284
0.0191563
-0.0135604
-0.0135604
0.0191563
-0.0322284
-0.00698607
-0.00876872
-0.00140565
-0.00876872
-0.018093
-0.0285062
-0.0144782
-0.0144782
-0.0285062
-0.018093
-0.00876872
-0.00140565
